ITEM: TIMESTEP
35185400
ITEM: NUMBER OF ATOMS
325
ITEM: BOX BOUNDS pp pp pp
-2.0000000000000000e+01 2.0000000000000000e+01
-2.0000000000000000e+01 2.0000000000000000e+01
-2.0000000000000000e+01 1.5000000000000000e+02
ITEM: ATOMS id type xu yu zu
322 2 -0.854926 -0.411711 -3.9064
323 2 -0.211149 -0.925106 -3.9064
324 2 0.591627 -0.741877 -3.9064
325 2 0 0 -4.02
318 2 0.948896 0 -3.9064
321 2 -0.854926 0.411711 -3.9064
320 2 -0.211149 0.925106 -3.9064
319 2 0.591627 0.741877 -3.9064
299 2 -1.58113 -2.09376 -3.04575
300 2 -0.71801 -2.52354 -3.04575
301 2 0.242085 -2.61251 -3.04575
302 2 1.16948 -2.34864 -3.04575
298 2 -2.23072 -1.3812 -3.04575
314 2 -0.651552 -1.718 -3.57552
315 2 0.221474 -1.824 -3.57552
316 2 1.04376 -1.51215 -3.57552
303 2 1.93894 -1.76758 -3.04575
297 2 -2.57903 -0.482104 -3.04575
312 2 -1.78401 -0.439719 -3.57552
313 2 -1.37531 -1.21842 -3.57552
317 2 1.62694 -0.853883 -3.57552
304 2 2.44653 -0.94779 -3.04575
305 2 1.8374 0 -3.57552
288 2 2.6237 0 -3.04575
296 2 -2.57903 0.482104 -3.04575
310 2 -1.37531 1.21842 -3.57552
311 2 -1.78401 0.439719 -3.57552
306 2 1.62694 0.853883 -3.57552
289 2 2.44653 0.94779 -3.04575
295 2 -2.23072 1.3812 -3.04575
309 2 -0.651552 1.718 -3.57552
308 2 0.221474 1.824 -3.57552
307 2 1.04376 1.51215 -3.57552
290 2 1.93894 1.76758 -3.04575
294 2 -1.58113 2.09376 -3.04575
293 2 -0.71801 2.52354 -3.04575
292 2 0.242085 2.61251 -3.04575
291 2 1.16948 2.34864 -3.04575
281 2 -1.35594 -2.96909 -2.34656
282 2 -0.464524 -3.23083 -2.34656
283 2 0.464524 -3.23083 -2.34656
284 2 1.35594 -2.96909 -2.34656
280 2 -2.1375 -2.46681 -2.34656
285 2 2.1375 -2.46681 -2.34656
279 2 -2.7459 -1.76468 -2.34656
17 1 -0.389966 -1.30018 -2.49019
18 1 0.459957 -1.72137 -2.26786
286 2 2.7459 -1.76468 -2.34656
278 2 -3.13184 -0.919591 -2.34656
16 1 -1.07793 -0.65261 -2.60334
5 1 1.09665 -0.707237 -2.7063
6 1 1.93503 -0.500164 -2.26967
287 2 3.13184 -0.919591 -2.34656
277 2 -3.26406 1.84926e-15 -2.34656
15 1 -1.38879 0.218962 -2.48342
4 1 0.267908 -0.21653 -2.83315
266 2 3.26406 0 -2.34656
276 2 -3.13184 0.919591 -2.34656
14 1 -1.4405 1.14708 -2.22916
3 1 -0.192111 0.60459 -2.61773
267 2 3.13184 0.919591 -2.34656
275 2 -2.7459 1.76468 -2.34656
2 1 -0.25258 1.50667 -2.24624
268 2 2.7459 1.76468 -2.34656
274 2 -2.1375 2.46681 -2.34656
269 2 2.1375 2.46681 -2.34656
273 2 -1.35594 2.96909 -2.34656
272 2 -0.464524 3.23083 -2.34656
271 2 0.464524 3.23083 -2.34656
270 2 1.35594 2.96909 -2.34656
260 2 -6.83876e-16 -3.72285 -1.51684
258 2 -1.86142 -3.22408 -1.51684
259 2 -0.963544 -3.596 -1.51684
261 2 0.963544 -3.596 -1.51684
262 2 1.86142 -3.22408 -1.51684
257 2 -2.63245 -2.63245 -1.51684
70 1 -0.671277 -2.15901 -1.73958
263 2 2.63245 -2.63245 -1.51684
256 2 -3.22408 -1.86142 -1.51684
69 1 -1.35274 -1.57347 -2.034
19 1 1.3614 -1.71664 -1.87513
20 1 2.20549 -1.58268 -1.44717
264 2 3.22408 -1.86142 -1.51684
255 2 -3.596 -0.963544 -1.51684
68 1 -2.01413 -0.849019 -1.88345
30 1 0.973059 -0.808002 -1.36707
265 2 3.596 -0.963544 -1.51684
254 2 -3.72285 4.55917e-16 -1.51684
67 1 -2.50908 -0.132995 -1.39432
29 1 0.287758 -0.228039 -1.7361
7 1 2.38864 0.180267 -1.76668
242 2 3.72285 0 -1.51684
253 2 -3.596 0.963544 -1.51684
28 1 -0.109997 0.616559 -1.3854
8 1 2.29745 1.02433 -1.31143
243 2 3.596 0.963544 -1.51684
252 2 -3.22408 1.86142 -1.51684
13 1 -1.14915 1.96667 -1.76063
244 2 3.22408 1.86142 -1.51684
251 2 -2.63245 2.63245 -1.51684
1 1 0.242825 2.20994 -1.86617
245 2 2.63245 2.63245 -1.51684
250 2 -1.86142 3.22408 -1.51684
249 2 -0.963544 3.596 -1.51684
247 2 0.963544 3.596 -1.51684
246 2 1.86142 3.22408 -1.51684
248 2 2.27959e-16 3.72285 -1.51684
234 2 -1.4094 -3.71628 -0.602743
235 2 -0.47908 -3.94558 -0.602743
236 2 0.47908 -3.94558 -0.602743
237 2 1.4094 -3.71628 -0.602743
233 2 -2.25781 -3.271 -0.602743
238 2 2.25781 -3.271 -0.602743
232 2 -2.975 -2.63562 -0.602743
71 1 0.027267 -2.67555 -1.28171
239 2 2.975 -2.63562 -0.602743
231 2 -3.5193 -1.84707 -0.602743
80 1 -2.27416 -1.45846 -0.572374
81 1 -1.39928 -1.68689 -0.882072
82 1 -0.462439 -1.78729 -0.817315
83 1 0.468924 -1.85446 -0.610945
240 2 3.5193 -1.84707 -0.602743
230 2 -3.85906 -0.951174 -0.602743
54 1 0.0524739 -0.732732 -0.718082
31 1 1.64356 -1.07232 -0.727756
21 1 2.83282 -1.10043 -0.918224
241 2 3.85906 -0.951174 -0.602743
229 2 -3.97456 -1.27831e-15 -0.602743
52 1 -1.47289 0.326774 -1.24183
53 1 -0.703097 -0.308531 -1.13006
216 2 3.97456 0 -0.602743
228 2 -3.85906 0.951174 -0.602743
66 1 -2.91445 0.580529 -0.796125
51 1 -1.90545 1.05817 -0.851563
217 2 3.85906 0.951174 -0.602743
227 2 -3.5193 1.84707 -0.602743
27 1 -0.0786556 1.30873 -0.743067
9 1 1.85762 1.76707 -0.976174
218 2 3.5193 1.84707 -0.602743
226 2 -2.975 2.63562 -0.602743
12 1 -0.548734 2.59523 -1.21976
11 1 0.290657 2.77684 -0.838765
10 1 1.11954 2.34366 -0.85229
219 2 2.975 2.63562 -0.602743
225 2 -2.25781 3.271 -0.602743
220 2 2.25781 3.271 -0.602743
224 2 -1.4094 3.71628 -0.602743
223 2 -0.47908 3.94558 -0.602743
222 2 0.47908 3.94558 -0.602743
221 2 1.4094 3.71628 -0.602743
72 1 0.608979 -3.01482 -0.468602
84 1 1.38165 -1.91185 -0.201142
79 1 -2.71595 -1.21554 0.223689
95 1 -1.47579 -0.7065 -0.370368
96 1 -0.667143 -0.70718 0.148617
55 1 0.710268 -0.815183 -0.0307275
32 1 2.2334 -0.941886 0.0687901
94 1 -2.36229 -0.406067 -0.267851
42 1 -0.163629 0.26824 -0.131279
22 1 3.0046 -0.347487 -0.377793
65 1 -2.90118 1.10073 0.0100584
41 1 -0.911292 0.770206 -0.450189
23 1 2.86391 0.44265 0.078843
50 1 -2.09759 1.78606 -0.186783
40 1 -1.09925 1.64035 -0.268153
26 1 0.464773 1.70416 -0.0448246
25 1 1.39873 1.53825 0.292377
39 1 -0.739285 2.39598 0.166245
208 2 -1.42026 -3.74491 0.344879
209 2 -0.482771 -3.97598 0.344879
210 2 0.482771 -3.97598 0.344879
211 2 1.42026 -3.74491 0.344879
207 2 -2.2752 -3.2962 0.344879
73 1 0.667127 -2.97972 0.475388
212 2 2.2752 -3.2962 0.344879
206 2 -2.99792 -2.65592 0.344879
213 2 2.99792 -2.65592 0.344879
205 2 -3.54641 -1.8613 0.344879
85 1 1.93201 -1.91657 0.572737
214 2 3.54641 -1.8613 0.344879
204 2 -3.8888 -0.958502 0.344879
97 1 0.0153465 -0.603058 0.774271
56 1 1.32596 -0.832046 0.700162
33 1 2.53126 -0.427038 0.814203
215 2 3.8888 -0.958502 0.344879
203 2 -4.00518 -1.28816e-15 0.344879
93 1 -2.82012 -0.0159535 0.459175
43 1 0.605287 0.189598 0.429496
190 2 4.00518 0 0.344879
202 2 -3.8888 0.958502 0.344879
24 1 2.29212 1.15353 0.397297
191 2 3.8888 0.958502 0.344879
201 2 -3.54641 1.8613 0.344879
64 1 -2.52842 1.41326 0.834168
192 2 3.54641 1.8613 0.344879
200 2 -2.99792 2.65592 0.344879
49 1 -1.75066 2.26143 0.626703
38 1 -0.110069 2.84778 0.706504
37 1 0.732916 2.66337 1.14132
193 2 2.99792 2.65592 0.344879
199 2 -2.2752 3.2962 0.344879
194 2 2.2752 3.2962 0.344879
198 2 -1.42026 3.74491 0.344879
197 2 -0.482771 3.97598 0.344879
196 2 0.482771 3.97598 0.344879
195 2 1.42026 3.74491 0.344879
183 2 -0.714487 -3.74547 1.27332
184 2 0.239421 -3.80549 1.27332
181 2 -2.43051 -2.93798 1.27332
182 2 -1.6235 -3.45012 1.27332
185 2 1.17829 -3.62639 1.27332
186 2 2.04311 -3.21943 1.27332
180 2 -3.08479 -2.24123 1.27332
74 1 0.295754 -2.65238 1.2993
75 1 -0.306033 -2.2019 1.92207
187 2 2.77957 -2.61019 1.27332
179 2 -3.54525 -1.40366 1.27332
86 1 1.64672 -1.72135 1.44304
188 2 3.34137 -1.83693 1.27332
178 2 -3.78295 -0.477897 1.27332
78 1 -2.53921 -1.1609 1.19842
57 1 1.83142 -0.718981 1.48506
189 2 3.69322 -0.948258 1.27332
92 1 -2.54442 0.183641 1.32641
91 1 -1.89176 -0.0136699 1.92716
98 1 0.420414 -0.323017 1.64228
34 1 2.42419 0.377976 1.29394
165 2 3.81301 0 1.27332
177 2 -3.78295 0.477897 1.27332
45 1 1.10098 1.0982 1.80994
44 1 1.23056 0.414545 1.19439
166 2 3.69322 0.948258 1.27332
176 2 -3.54525 1.40366 1.27332
63 1 -2.01211 1.54462 1.57079
35 1 2.03165 1.22856 1.45608
167 2 3.34137 1.83693 1.27332
175 2 -3.08479 2.24123 1.27332
48 1 -1.08246 2.34773 1.29394
47 1 -0.252381 2.1782 1.82523
36 1 1.45025 2.06764 1.39226
168 2 2.77957 2.61019 1.27332
174 2 -2.43051 2.93798 1.27332
173 2 -1.6235 3.45012 1.27332
170 2 1.17829 3.62639 1.27332
169 2 2.04311 3.21943 1.27332
172 2 -0.714487 3.74547 1.27332
171 2 0.239421 3.80549 1.27332
158 2 -1.41604 -3.1007 2.13093
159 2 -0.485115 -3.37405 2.13093
160 2 0.485115 -3.37405 2.13093
161 2 1.41604 -3.1007 2.13093
157 2 -2.23225 -2.57616 2.13093
162 2 2.23225 -2.57616 2.13093
156 2 -2.86762 -1.84291 2.13093
77 1 -1.94811 -1.3023 1.9984
76 1 -1.08825 -1.71851 2.26807
87 1 1.14455 -1.42167 2.24212
163 2 2.86762 -1.84291 2.13093
155 2 -3.27067 -0.960355 2.13093
89 1 -0.370827 -0.665552 2.77315
88 1 0.469658 -1.06212 2.74404
164 2 3.27067 -0.960355 2.13093
154 2 -3.40875 1.93124e-15 2.13093
90 1 -1.17292 -0.276761 2.50395
99 1 0.385689 -0.0402012 2.55368
58 1 1.99452 -0.304263 2.38789
59 1 1.39819 0.328934 2.75256
143 2 3.40875 0 2.13093
153 2 -3.27067 0.960355 2.13093
144 2 3.27067 0.960355 2.13093
152 2 -2.86762 1.84291 2.13093
62 1 -1.24498 1.45387 2.13202
61 1 -0.367928 1.24582 2.59065
46 1 0.572987 1.83412 2.1532
145 2 2.86762 1.84291 2.13093
151 2 -2.23225 2.57616 2.13093
146 2 2.23225 2.57616 2.13093
150 2 -1.41604 3.1007 2.13093
149 2 -0.485115 3.37405 2.13093
148 2 0.485115 3.37405 2.13093
147 2 1.41604 3.1007 2.13093
136 2 -1.90646 -2.07097 2.87
137 2 -1.13072 -2.57778 2.87
138 2 -0.23245 -2.80525 2.87
139 2 0.691009 -2.72873 2.87
140 2 1.53959 -2.35651 2.87
135 2 -2.4756 -1.33973 2.87
119 2 -1.28714 -1.61402 3.44943
120 2 -0.459375 -2.01265 3.44943
121 2 0.459375 -2.01265 3.44943
122 2 1.28714 -1.61402 3.44943
141 2 2.22133 -1.72893 2.87
134 2 -2.77648 -0.463312 2.87
118 2 -1.85997 -0.895715 3.44943
123 2 1.85997 -0.895715 3.44943
142 2 2.66235 -0.913986 2.87
117 2 -2.06441 2.52818e-16 3.44943
100 1 -0.16901 0.178641 3.3289
110 2 2.06441 0 3.44943
124 2 2.81487 0 2.87
133 2 -2.77648 0.463312 2.87
116 2 -1.85997 0.895715 3.44943
60 1 0.53961 0.884007 2.83277
111 2 1.85997 0.895715 3.44943
125 2 2.66235 0.913986 2.87
132 2 -2.4756 1.33973 2.87
115 2 -1.28714 1.61402 3.44943
114 2 -0.459375 2.01265 3.44943
113 2 0.459375 2.01265 3.44943
112 2 1.28714 1.61402 3.44943
126 2 2.22133 1.72893 2.87
131 2 -1.90646 2.07097 2.87
130 2 -1.13072 2.57778 2.87
129 2 -0.23245 2.80525 2.87
128 2 0.691009 2.72873 2.87
127 2 1.53959 2.35651 2.87
106 3 -1.12681 -0.410124 3.83699
107 3 -0.599562 -1.03847 3.83699
108 3 0.208226 -1.18091 3.83699
109 3 0.918582 -0.770782 3.83699
101 3 1.19912 0 3.83699
104 3 -0.599562 1.03847 3.83699
105 3 -1.12681 0.410124 3.83699
103 3 0.208226 1.18091 3.83699
102 3 0.918582 0.770782 3.83699
ITEM: TIMESTEP
35185401
ITEM: NUMBER OF ATOMS
325
ITEM: BOX BOUNDS pp pp pp
-2.0000000000000000e+01 2.0000000000000000e+01
-2.0000000000000000e+01 2.0000000000000000e+01
-2.0000000000000000e+01 1.5000000000000000e+02
ITEM: ATOMS id type xu yu zu
322 2 -0.854926 -0.411711 -3.9064
323 2 -0.211149 -0.925106 -3.9064
324 2 0.591627 -0.741877 -3.9064
325 2 0 0 -4.02
318 2 0.948896 0 -3.9064
321 2 -0.854926 0.411711 -3.9064
320 2 -0.211149 0.925106 -3.9064
319 2 0.591627 0.741877 -3.9064
299 2 -1.58113 -2.09376 -3.04575
300 2 -0.71801 -2.52354 -3.04575
301 2 0.242085 -2.61251 -3.04575
302 2 1.16948 -2.34864 -3.04575
298 2 -2.23072 -1.3812 -3.04575
314 2 -0.651552 -1.718 -3.57552
315 2 0.221474 -1.824 -3.57552
316 2 1.04376 -1.51215 -3.57552
303 2 1.93894 -1.76758 -3.04575
297 2 -2.57903 -0.482104 -3.04575
312 2 -1.78401 -0.439719 -3.57552
313 2 -1.37531 -1.21842 -3.57552
317 2 1.62694 -0.853883 -3.57552
304 2 2.44653 -0.94779 -3.04575
305 2 1.8374 0 -3.57552
288 2 2.6237 0 -3.04575
296 2 -2.57903 0.482104 -3.04575
310 2 -1.37531 1.21842 -3.57552
311 2 -1.78401 0.439719 -3.57552
306 2 1.62694 0.853883 -3.57552
289 2 2.44653 0.94779 -3.04575
295 2 -2.23072 1.3812 -3.04575
309 2 -0.651552 1.718 -3.57552
308 2 0.221474 1.824 -3.57552
307 2 1.04376 1.51215 -3.57552
290 2 1.93894 1.76758 -3.04575
294 2 -1.58113 2.09376 -3.04575
293 2 -0.71801 2.52354 -3.04575
292 2 0.242085 2.61251 -3.04575
291 2 1.16948 2.34864 -3.04575
281 2 -1.35594 -2.96909 -2.34656
282 2 -0.464524 -3.23083 -2.34656
283 2 0.464524 -3.23083 -2.34656
284 2 1.35594 -2.96909 -2.34656
280 2 -2.1375 -2.46681 -2.34656
285 2 2.1375 -2.46681 -2.34656
279 2 -2.7459 -1.76468 -2.34656
17 1 -0.389794 -1.30015 -2.49017
18 1 0.46002 -1.72134 -2.26792
286 2 2.7459 -1.76468 -2.34656
278 2 -3.13184 -0.919591 -2.34656
16 1 -1.07784 -0.652625 -2.60352
5 1 1.09665 -0.707424 -2.70625
6 1 1.93512 -0.500072 -2.26971
287 2 3.13184 -0.919591 -2.34656
277 2 -3.26406 1.84926e-15 -2.34656
15 1 -1.38881 0.218894 -2.48328
4 1 0.267713 -0.216514 -2.83318
266 2 3.26406 0 -2.34656
276 2 -3.13184 0.919591 -2.34656
14 1 -1.44055 1.14703 -2.22911
3 1 -0.192169 0.604408 -2.61771
267 2 3.13184 0.919591 -2.34656
275 2 -2.7459 1.76468 -2.34656
2 1 -0.25247 1.50675 -2.24626
268 2 2.7459 1.76468 -2.34656
274 2 -2.1375 2.46681 -2.34656
269 2 2.1375 2.46681 -2.34656
273 2 -1.35594 2.96909 -2.34656
272 2 -0.464524 3.23083 -2.34656
271 2 0.464524 3.23083 -2.34656
270 2 1.35594 2.96909 -2.34656
260 2 -6.83876e-16 -3.72285 -1.51684
258 2 -1.86142 -3.22408 -1.51684
259 2 -0.963544 -3.596 -1.51684
261 2 0.963544 -3.596 -1.51684
262 2 1.86142 -3.22408 -1.51684
257 2 -2.63245 -2.63245 -1.51684
70 1 -0.671225 -2.15908 -1.73968
263 2 2.63245 -2.63245 -1.51684
256 2 -3.22408 -1.86142 -1.51684
69 1 -1.35277 -1.57351 -2.03401
19 1 1.36157 -1.71657 -1.87515
20 1 2.20535 -1.58256 -1.44718
264 2 3.22408 -1.86142 -1.51684
255 2 -3.596 -0.963544 -1.51684
68 1 -2.01406 -0.849071 -1.88344
30 1 0.972969 -0.807884 -1.36727
265 2 3.596 -0.963544 -1.51684
254 2 -3.72285 4.55917e-16 -1.51684
67 1 -2.50925 -0.132993 -1.39435
29 1 0.287668 -0.228082 -1.73594
7 1 2.38869 0.180116 -1.7666
242 2 3.72285 0 -1.51684
253 2 -3.596 0.963544 -1.51684
28 1 -0.109885 0.6166 -1.38544
8 1 2.29755 1.02457 -1.31149
243 2 3.596 0.963544 -1.51684
252 2 -3.22408 1.86142 -1.51684
13 1 -1.14924 1.96653 -1.76066
244 2 3.22408 1.86142 -1.51684
251 2 -2.63245 2.63245 -1.51684
1 1 0.24293 2.20977 -1.86619
245 2 2.63245 2.63245 -1.51684
250 2 -1.86142 3.22408 -1.51684
249 2 -0.963544 3.596 -1.51684
247 2 0.963544 3.596 -1.51684
246 2 1.86142 3.22408 -1.51684
248 2 2.27959e-16 3.72285 -1.51684
234 2 -1.4094 -3.71628 -0.602743
235 2 -0.47908 -3.94558 -0.602743
236 2 0.47908 -3.94558 -0.602743
237 2 1.4094 -3.71628 -0.602743
233 2 -2.25781 -3.271 -0.602743
238 2 2.25781 -3.271 -0.602743
232 2 -2.975 -2.63562 -0.602743
71 1 0.0272253 -2.67559 -1.28177
239 2 2.975 -2.63562 -0.602743
231 2 -3.5193 -1.84707 -0.602743
80 1 -2.27421 -1.45854 -0.572203
81 1 -1.39925 -1.68695 -0.88215
82 1 -0.462367 -1.78737 -0.81734
83 1 0.468805 -1.85452 -0.610937
240 2 3.5193 -1.84707 -0.602743
230 2 -3.85906 -0.951174 -0.602743
54 1 0.0526169 -0.732975 -0.718043
31 1 1.64343 -1.07231 -0.727685
21 1 2.83305 -1.10039 -0.918206
241 2 3.85906 -0.951174 -0.602743
229 2 -3.97456 -1.27831e-15 -0.602743
52 1 -1.47294 0.326784 -1.24184
53 1 -0.703135 -0.308488 -1.13001
216 2 3.97456 0 -0.602743
228 2 -3.85906 0.951174 -0.602743
66 1 -2.91458 0.580653 -0.796026
51 1 -1.90548 1.05821 -0.851495
217 2 3.85906 0.951174 -0.602743
227 2 -3.5193 1.84707 -0.602743
27 1 -0.0787778 1.30863 -0.742978
9 1 1.8576 1.76729 -0.976276
218 2 3.5193 1.84707 -0.602743
226 2 -2.975 2.63562 -0.602743
12 1 -0.548727 2.59542 -1.21976
11 1 0.290643 2.77683 -0.838744
10 1 1.11946 2.34376 -0.852134
219 2 2.975 2.63562 -0.602743
225 2 -2.25781 3.271 -0.602743
220 2 2.25781 3.271 -0.602743
224 2 -1.4094 3.71628 -0.602743
223 2 -0.47908 3.94558 -0.602743
222 2 0.47908 3.94558 -0.602743
221 2 1.4094 3.71628 -0.602743
72 1 0.608978 -3.01491 -0.468635
84 1 1.38156 -1.91188 -0.201095
79 1 -2.71586 -1.21552 0.223772
95 1 -1.4757 -0.706463 -0.37038
96 1 -0.667111 -0.707157 0.148564
55 1 0.710265 -0.815181 -0.0305947
32 1 2.23351 -0.941889 0.0688008
94 1 -2.36226 -0.406055 -0.267849
42 1 -0.163605 0.268208 -0.131286
22 1 3.00443 -0.347622 -0.377623
65 1 -2.90122 1.10063 0.0100963
41 1 -0.911394 0.770089 -0.45011
23 1 2.86382 0.44245 0.0787126
50 1 -2.09755 1.78603 -0.186628
40 1 -1.09918 1.64031 -0.268196
26 1 0.464768 1.70423 -0.0450301
25 1 1.39879 1.53821 0.292508
39 1 -0.73932 2.39606 0.166287
208 2 -1.42026 -3.74491 0.344879
209 2 -0.482771 -3.97598 0.344879
210 2 0.482771 -3.97598 0.344879
211 2 1.42026 -3.74491 0.344879
207 2 -2.2752 -3.2962 0.344879
73 1 0.667197 -2.97955 0.475479
212 2 2.2752 -3.2962 0.344879
206 2 -2.99792 -2.65592 0.344879
213 2 2.99792 -2.65592 0.344879
205 2 -3.54641 -1.8613 0.344879
85 1 1.93203 -1.91645 0.57275
214 2 3.54641 -1.8613 0.344879
204 2 -3.8888 -0.958502 0.344879
97 1 0.0153212 -0.603203 0.774187
56 1 1.32593 -0.831999 0.699943
33 1 2.53128 -0.426938 0.814332
215 2 3.8888 -0.958502 0.344879
203 2 -4.00518 -1.28816e-15 0.344879
93 1 -2.82007 -0.0159153 0.459251
43 1 0.605176 0.189776 0.429523
190 2 4.00518 0 0.344879
202 2 -3.8888 0.958502 0.344879
24 1 2.292 1.1536 0.397244
191 2 3.8888 0.958502 0.344879
201 2 -3.54641 1.8613 0.344879
64 1 -2.52836 1.41328 0.834183
192 2 3.54641 1.8613 0.344879
200 2 -2.99792 2.65592 0.344879
49 1 -1.75072 2.26134 0.626659
38 1 -0.110148 2.84789 0.706517
37 1 0.732977 2.66331 1.14153
193 2 2.99792 2.65592 0.344879
199 2 -2.2752 3.2962 0.344879
194 2 2.2752 3.2962 0.344879
198 2 -1.42026 3.74491 0.344879
197 2 -0.482771 3.97598 0.344879
196 2 0.482771 3.97598 0.344879
195 2 1.42026 3.74491 0.344879
183 2 -0.714487 -3.74547 1.27332
184 2 0.239421 -3.80549 1.27332
181 2 -2.43051 -2.93798 1.27332
182 2 -1.6235 -3.45012 1.27332
185 2 1.17829 -3.62639 1.27332
186 2 2.04311 -3.21943 1.27332
180 2 -3.08479 -2.24123 1.27332
74 1 0.295677 -2.6524 1.29927
75 1 -0.306004 -2.20183 1.92185
187 2 2.77957 -2.61019 1.27332
179 2 -3.54525 -1.40366 1.27332
86 1 1.64671 -1.72144 1.44307
188 2 3.34137 -1.83693 1.27332
178 2 -3.78295 -0.477897 1.27332
78 1 -2.53928 -1.1608 1.19859
57 1 1.8312 -0.719011 1.48521
189 2 3.69322 -0.948258 1.27332
92 1 -2.54432 0.183582 1.32656
91 1 -1.89183 -0.0137797 1.92719
98 1 0.420437 -0.32325 1.64231
34 1 2.42436 0.377863 1.29405
165 2 3.81301 0 1.27332
177 2 -3.78295 0.477897 1.27332
45 1 1.10092 1.09805 1.81004
44 1 1.23074 0.414589 1.19444
166 2 3.69322 0.948258 1.27332
176 2 -3.54525 1.40366 1.27332
63 1 -2.01213 1.54461 1.57064
35 1 2.0317 1.22855 1.45586
167 2 3.34137 1.83693 1.27332
175 2 -3.08479 2.24123 1.27332
48 1 -1.08245 2.34779 1.29406
47 1 -0.252424 2.17815 1.82536
36 1 1.45033 2.06748 1.39236
168 2 2.77957 2.61019 1.27332
174 2 -2.43051 2.93798 1.27332
173 2 -1.6235 3.45012 1.27332
170 2 1.17829 3.62639 1.27332
169 2 2.04311 3.21943 1.27332
172 2 -0.714487 3.74547 1.27332
171 2 0.239421 3.80549 1.27332
158 2 -1.41604 -3.1007 2.13093
159 2 -0.485115 -3.37405 2.13093
160 2 0.485115 -3.37405 2.13093
161 2 1.41604 -3.1007 2.13093
157 2 -2.23225 -2.57616 2.13093
162 2 2.23225 -2.57616 2.13093
156 2 -2.86762 -1.84291 2.13093
77 1 -1.94799 -1.30213 1.9986
76 1 -1.08823 -1.71872 2.26805
87 1 1.14472 -1.42167 2.24199
163 2 2.86762 -1.84291 2.13093
155 2 -3.27067 -0.960355 2.13093
89 1 -0.370703 -0.665444 2.77317
88 1 0.469485 -1.06206 2.74418
164 2 3.27067 -0.960355 2.13093
154 2 -3.40875 1.93124e-15 2.13093
90 1 -1.17297 -0.276917 2.50405
99 1 0.385844 -0.040205 2.55374
58 1 1.99452 -0.304239 2.38798
59 1 1.3982 0.328912 2.75256
143 2 3.40875 0 2.13093
153 2 -3.27067 0.960355 2.13093
144 2 3.27067 0.960355 2.13093
152 2 -2.86762 1.84291 2.13093
62 1 -1.2451 1.45394 2.132
61 1 -0.367999 1.24579 2.59058
46 1 0.572894 1.83409 2.15316
145 2 2.86762 1.84291 2.13093
151 2 -2.23225 2.57616 2.13093
146 2 2.23225 2.57616 2.13093
150 2 -1.41604 3.1007 2.13093
149 2 -0.485115 3.37405 2.13093
148 2 0.485115 3.37405 2.13093
147 2 1.41604 3.1007 2.13093
136 2 -1.90646 -2.07097 2.87
137 2 -1.13072 -2.57778 2.87
138 2 -0.23245 -2.80525 2.87
139 2 0.691009 -2.72873 2.87
140 2 1.53959 -2.35651 2.87
135 2 -2.4756 -1.33973 2.87
119 2 -1.28714 -1.61402 3.44943
120 2 -0.459375 -2.01265 3.44943
121 2 0.459375 -2.01265 3.44943
122 2 1.28714 -1.61402 3.44943
141 2 2.22133 -1.72893 2.87
134 2 -2.77648 -0.463312 2.87
118 2 -1.85997 -0.895715 3.44943
123 2 1.85997 -0.895715 3.44943
142 2 2.66235 -0.913986 2.87
117 2 -2.06441 2.52818e-16 3.44943
100 1 -0.168813 0.178913 3.32868
110 2 2.06441 0 3.44943
124 2 2.81487 0 2.87
133 2 -2.77648 0.463312 2.87
116 2 -1.85997 0.895715 3.44943
60 1 0.539776 0.884144 2.8329
111 2 1.85997 0.895715 3.44943
125 2 2.66235 0.913986 2.87
132 2 -2.4756 1.33973 2.87
115 2 -1.28714 1.61402 3.44943
114 2 -0.459375 2.01265 3.44943
113 2 0.459375 2.01265 3.44943
112 2 1.28714 1.61402 3.44943
126 2 2.22133 1.72893 2.87
131 2 -1.90646 2.07097 2.87
130 2 -1.13072 2.57778 2.87
129 2 -0.23245 2.80525 2.87
128 2 0.691009 2.72873 2.87
127 2 1.53959 2.35651 2.87
106 3 -1.12681 -0.410124 3.83699
107 3 -0.599562 -1.03847 3.83699
108 3 0.208226 -1.18091 3.83699
109 3 0.918582 -0.770782 3.83699
101 3 1.19912 0 3.83699
104 3 -0.599562 1.03847 3.83699
105 3 -1.12681 0.410124 3.83699
103 3 0.208226 1.18091 3.83699
102 3 0.918582 0.770782 3.83699
