ITEM: TIMESTEP
42408200
ITEM: NUMBER OF ATOMS
325
ITEM: BOX BOUNDS pp pp pp
-2.0000000000000000e+01 2.0000000000000000e+01
-2.0000000000000000e+01 2.0000000000000000e+01
-2.0000000000000000e+01 1.5000000000000000e+02
ITEM: ATOMS id type xu yu zu
322 2 -0.854926 -0.411711 -3.9064
323 2 -0.211149 -0.925106 -3.9064
324 2 0.591627 -0.741877 -3.9064
325 2 0 0 -4.02
318 2 0.948896 0 -3.9064
321 2 -0.854926 0.411711 -3.9064
320 2 -0.211149 0.925106 -3.9064
319 2 0.591627 0.741877 -3.9064
299 2 -1.58113 -2.09376 -3.04575
300 2 -0.71801 -2.52354 -3.04575
301 2 0.242085 -2.61251 -3.04575
302 2 1.16948 -2.34864 -3.04575
298 2 -2.23072 -1.3812 -3.04575
314 2 -0.651552 -1.718 -3.57552
315 2 0.221474 -1.824 -3.57552
316 2 1.04376 -1.51215 -3.57552
303 2 1.93894 -1.76758 -3.04575
297 2 -2.57903 -0.482104 -3.04575
312 2 -1.78401 -0.439719 -3.57552
313 2 -1.37531 -1.21842 -3.57552
317 2 1.62694 -0.853883 -3.57552
304 2 2.44653 -0.94779 -3.04575
54 1 -0.473528 0.125488 -3.00711
305 2 1.8374 0 -3.57552
288 2 2.6237 0 -3.04575
296 2 -2.57903 0.482104 -3.04575
310 2 -1.37531 1.21842 -3.57552
311 2 -1.78401 0.439719 -3.57552
306 2 1.62694 0.853883 -3.57552
289 2 2.44653 0.94779 -3.04575
295 2 -2.23072 1.3812 -3.04575
309 2 -0.651552 1.718 -3.57552
308 2 0.221474 1.824 -3.57552
307 2 1.04376 1.51215 -3.57552
290 2 1.93894 1.76758 -3.04575
294 2 -1.58113 2.09376 -3.04575
293 2 -0.71801 2.52354 -3.04575
292 2 0.242085 2.61251 -3.04575
291 2 1.16948 2.34864 -3.04575
281 2 -1.35594 -2.96909 -2.34656
282 2 -0.464524 -3.23083 -2.34656
283 2 0.464524 -3.23083 -2.34656
284 2 1.35594 -2.96909 -2.34656
280 2 -2.1375 -2.46681 -2.34656
285 2 2.1375 -2.46681 -2.34656
279 2 -2.7459 -1.76468 -2.34656
56 1 -0.141634 -1.59624 -2.40201
286 2 2.7459 -1.76468 -2.34656
278 2 -3.13184 -0.919591 -2.34656
11 1 -1.49327 -0.643215 -2.57093
55 1 -0.347717 -0.75315 -2.79705
287 2 3.13184 -0.919591 -2.34656
277 2 -3.26406 1.84926e-15 -2.34656
12 1 -1.66141 0.316158 -2.50559
1 1 0.879165 -0.367352 -2.88428
266 2 3.26406 0 -2.34656
276 2 -3.13184 0.919591 -2.34656
53 1 -0.267481 0.976048 -2.59285
2 1 0.957489 0.629167 -2.77395
267 2 3.13184 0.919591 -2.34656
275 2 -2.7459 1.76468 -2.34656
13 1 -1.68729 1.27935 -2.16321
3 1 1.14562 1.45882 -2.35195
268 2 2.7459 1.76468 -2.34656
274 2 -2.1375 2.46681 -2.34656
269 2 2.1375 2.46681 -2.34656
273 2 -1.35594 2.96909 -2.34656
272 2 -0.464524 3.23083 -2.34656
271 2 0.464524 3.23083 -2.34656
270 2 1.35594 2.96909 -2.34656
260 2 -6.83876e-16 -3.72285 -1.51684
258 2 -1.86142 -3.22408 -1.51684
259 2 -0.963544 -3.596 -1.51684
261 2 0.963544 -3.596 -1.51684
262 2 1.86142 -3.22408 -1.51684
257 2 -2.63245 -2.63245 -1.51684
57 1 0.0580397 -2.35269 -1.83297
72 1 1.2246 -2.19961 -1.5184
263 2 2.63245 -2.63245 -1.51684
256 2 -3.22408 -1.86142 -1.51684
71 1 0.82601 -1.46166 -1.95495
264 2 3.22408 -1.86142 -1.51684
255 2 -3.596 -0.963544 -1.51684
29 1 -2.33325 -0.921175 -1.44973
10 1 -1.05554 -1.15833 -1.85826
70 1 0.258871 -0.67857 -1.90671
265 2 3.596 -0.963544 -1.51684
254 2 -3.72285 4.55917e-16 -1.51684
30 1 -2.51358 0.00223282 -1.67269
69 1 -0.299138 0.0807787 -1.83377
242 2 3.72285 0 -1.51684
253 2 -3.596 0.963544 -1.51684
31 1 -2.43977 0.86597 -1.31985
243 2 3.596 0.963544 -1.51684
252 2 -3.22408 1.86142 -1.51684
14 1 -1.51417 1.99058 -1.56551
52 1 0.0160474 1.682 -2.07538
4 1 1.3625 1.41606 -1.42228
244 2 3.22408 1.86142 -1.51684
251 2 -2.63245 2.63245 -1.51684
245 2 2.63245 2.63245 -1.51684
250 2 -1.86142 3.22408 -1.51684
249 2 -0.963544 3.596 -1.51684
247 2 0.963544 3.596 -1.51684
246 2 1.86142 3.22408 -1.51684
248 2 2.27959e-16 3.72285 -1.51684
234 2 -1.4094 -3.71628 -0.602743
235 2 -0.47908 -3.94558 -0.602743
236 2 0.47908 -3.94558 -0.602743
237 2 1.4094 -3.71628 -0.602743
233 2 -2.25781 -3.271 -0.602743
238 2 2.25781 -3.271 -0.602743
232 2 -2.975 -2.63562 -0.602743
58 1 0.199894 -2.77729 -0.978975
73 1 1.3563 -2.62089 -0.68318
239 2 2.975 -2.63562 -0.602743
231 2 -3.5193 -1.84707 -0.602743
28 1 -2.01818 -1.62713 -0.878908
24 1 0.977748 -1.67389 -0.582572
23 1 1.70312 -1.30573 -1.05336
240 2 3.5193 -1.84707 -0.602743
230 2 -3.85906 -0.951174 -0.602743
9 1 -0.537864 -1.0336 -1.01648
22 1 2.34132 -0.676375 -1.28704
241 2 3.85906 -0.951174 -0.602743
229 2 -3.97456 -1.27831e-15 -0.602743
94 1 -2.84696 -0.197756 -0.700601
95 1 -1.88976 0.0183779 -0.58768
85 1 1.05172 0.244046 -1.20872
21 1 2.62626 0.184548 -1.14541
216 2 3.97456 0 -0.602743
228 2 -3.85906 0.951174 -0.602743
67 1 -1.35006 1.21075 -0.629226
68 1 -0.858572 0.737628 -1.26447
84 1 0.287416 0.831814 -1.21266
5 1 1.25466 0.990725 -0.513321
20 1 2.68855 1.09499 -0.935228
217 2 3.85906 0.951174 -0.602743
227 2 -3.5193 1.84707 -0.602743
32 1 -2.35773 1.69964 -0.761444
51 1 0.336295 2.01378 -1.27631
83 1 -0.253949 1.40884 -0.613865
19 1 2.23854 1.87279 -0.661085
218 2 3.5193 1.84707 -0.602743
226 2 -2.975 2.63562 -0.602743
15 1 -1.06824 2.6262 -0.947546
219 2 2.975 2.63562 -0.602743
225 2 -2.25781 3.271 -0.602743
16 1 -0.266622 2.90098 -0.561432
220 2 2.25781 3.271 -0.602743
224 2 -1.4094 3.71628 -0.602743
223 2 -0.47908 3.94558 -0.602743
222 2 0.47908 3.94558 -0.602743
221 2 1.4094 3.71628 -0.602743
59 1 0.144046 -3.10778 -0.0982451
26 1 -0.652553 -2.08754 0.28651
74 1 1.19995 -2.67281 0.263648
27 1 -1.43482 -1.95312 -0.24083
25 1 0.209199 -2.00032 -0.107058
42 1 2.5816 -1.41714 -0.0324223
93 1 -2.83139 -0.711654 0.0931517
8 1 -0.0434305 -0.856697 -0.229941
41 1 2.85325 -0.464299 0.0560102
96 1 -1.03485 0.0925794 -0.199978
86 1 1.51548 -0.0176243 -0.425108
66 1 -1.62616 0.927232 0.30685
40 1 2.88969 0.416434 0.313309
82 1 -0.682881 1.74171 0.196446
50 1 0.610887 1.96129 -0.379301
33 1 -2.12557 2.12818 0.0514105
18 1 1.55067 2.56128 -0.394376
17 1 0.678871 2.94594 -0.31675
208 2 -1.42026 -3.74491 0.344879
209 2 -0.482771 -3.97598 0.344879
210 2 0.482771 -3.97598 0.344879
211 2 1.42026 -3.74491 0.344879
207 2 -2.2752 -3.2962 0.344879
60 1 -0.172156 -2.97641 0.781823
212 2 2.2752 -3.2962 0.344879
206 2 -2.99792 -2.65592 0.344879
75 1 0.89701 -2.59054 1.13164
213 2 2.99792 -2.65592 0.344879
205 2 -3.54641 -1.8613 0.344879
91 1 -1.43814 -1.29182 1.11939
43 1 2.14186 -2.01893 0.543734
214 2 3.54641 -1.8613 0.344879
204 2 -3.8888 -0.958502 0.344879
92 1 -2.31878 -1.12825 0.774189
215 2 3.8888 -0.958502 0.344879
203 2 -4.00518 -1.28816e-15 0.344879
97 1 -0.423197 0.0719213 0.561269
7 1 0.520273 -0.338498 0.372497
87 1 1.57659 -0.337054 0.436903
190 2 4.00518 0 0.344879
202 2 -3.8888 0.958502 0.344879
65 1 -1.78099 0.420512 1.1056
6 1 1.05415 0.496538 0.336779
191 2 3.8888 0.958502 0.344879
201 2 -3.54641 1.8613 0.344879
81 1 -0.753804 1.42063 1.08979
49 1 0.89307 1.62324 0.484488
39 1 2.58143 1.24522 0.78538
192 2 3.54641 1.8613 0.344879
200 2 -2.99792 2.65592 0.344879
34 1 -1.55833 2.34407 0.789543
35 1 -0.681115 2.47986 1.10597
193 2 2.99792 2.65592 0.344879
199 2 -2.2752 3.2962 0.344879
194 2 2.2752 3.2962 0.344879
198 2 -1.42026 3.74491 0.344879
197 2 -0.482771 3.97598 0.344879
196 2 0.482771 3.97598 0.344879
195 2 1.42026 3.74491 0.344879
183 2 -0.714487 -3.74547 1.27332
184 2 0.239421 -3.80549 1.27332
181 2 -2.43051 -2.93798 1.27332
182 2 -1.6235 -3.45012 1.27332
185 2 1.17829 -3.62639 1.27332
186 2 2.04311 -3.21943 1.27332
180 2 -3.08479 -2.24123 1.27332
61 1 -0.660179 -2.45581 1.39747
76 1 0.438289 -2.31001 1.86879
187 2 2.77957 -2.61019 1.27332
179 2 -3.54525 -1.40366 1.27332
90 1 -0.482251 -1.3028 1.3166
44 1 1.67065 -2.00649 1.355
188 2 3.34137 -1.83693 1.27332
178 2 -3.78295 -0.477897 1.27332
89 1 0.40655 -1.13418 1.40666
88 1 1.338 -0.78596 1.2545
189 2 3.69322 -0.948258 1.27332
64 1 -1.88599 -0.200326 1.83993
98 1 0.0303322 0.0580174 1.49643
165 2 3.81301 0 1.27332
177 2 -3.78295 0.477897 1.27332
80 1 -0.84127 0.829758 1.83491
48 1 1.15522 1.14279 1.2486
47 1 1.3435 0.410352 1.83533
166 2 3.69322 0.948258 1.27332
176 2 -3.54525 1.40366 1.27332
38 1 2.00264 1.90759 1.168
167 2 3.34137 1.83693 1.27332
175 2 -3.08479 2.24123 1.27332
36 1 0.27974 2.59185 1.39059
37 1 1.23978 2.35735 1.37881
168 2 2.77957 2.61019 1.27332
174 2 -2.43051 2.93798 1.27332
173 2 -1.6235 3.45012 1.27332
170 2 1.17829 3.62639 1.27332
169 2 2.04311 3.21943 1.27332
172 2 -0.714487 3.74547 1.27332
171 2 0.239421 3.80549 1.27332
158 2 -1.41604 -3.1007 2.13093
159 2 -0.485115 -3.37405 2.13093
160 2 0.485115 -3.37405 2.13093
161 2 1.41604 -3.1007 2.13093
157 2 -2.23225 -2.57616 2.13093
162 2 2.23225 -2.57616 2.13093
156 2 -2.86762 -1.84291 2.13093
62 1 -1.19233 -1.88128 1.97177
77 1 -0.0840329 -1.65168 2.26781
45 1 1.58556 -1.43277 2.11592
163 2 2.86762 -1.84291 2.13093
155 2 -3.27067 -0.960355 2.13093
63 1 -1.60612 -1.05848 2.21723
78 1 -0.526756 -0.854225 2.52379
46 1 1.47892 -0.485547 2.28079
164 2 3.27067 -0.960355 2.13093
154 2 -3.40875 1.93124e-15 2.13093
79 1 -0.854419 0.0784515 2.43258
99 1 0.283309 -0.0125749 2.44326
143 2 3.40875 0 2.13093
153 2 -3.27067 0.960355 2.13093
144 2 3.27067 0.960355 2.13093
152 2 -2.86762 1.84291 2.13093
145 2 2.86762 1.84291 2.13093
151 2 -2.23225 2.57616 2.13093
146 2 2.23225 2.57616 2.13093
150 2 -1.41604 3.1007 2.13093
149 2 -0.485115 3.37405 2.13093
148 2 0.485115 3.37405 2.13093
147 2 1.41604 3.1007 2.13093
136 2 -1.90646 -2.07097 2.87
137 2 -1.13072 -2.57778 2.87
138 2 -0.23245 -2.80525 2.87
139 2 0.691009 -2.72873 2.87
140 2 1.53959 -2.35651 2.87
135 2 -2.4756 -1.33973 2.87
119 2 -1.28714 -1.61402 3.44943
120 2 -0.459375 -2.01265 3.44943
121 2 0.459375 -2.01265 3.44943
122 2 1.28714 -1.61402 3.44943
141 2 2.22133 -1.72893 2.87
134 2 -2.77648 -0.463312 2.87
118 2 -1.85997 -0.895715 3.44943
123 2 1.85997 -0.895715 3.44943
142 2 2.66235 -0.913986 2.87
117 2 -2.06441 2.52818e-16 3.44943
100 1 -0.0689523 -0.0476809 3.33666
110 2 2.06441 0 3.44943
124 2 2.81487 0 2.87
133 2 -2.77648 0.463312 2.87
116 2 -1.85997 0.895715 3.44943
111 2 1.85997 0.895715 3.44943
125 2 2.66235 0.913986 2.87
132 2 -2.4756 1.33973 2.87
115 2 -1.28714 1.61402 3.44943
114 2 -0.459375 2.01265 3.44943
113 2 0.459375 2.01265 3.44943
112 2 1.28714 1.61402 3.44943
126 2 2.22133 1.72893 2.87
131 2 -1.90646 2.07097 2.87
130 2 -1.13072 2.57778 2.87
129 2 -0.23245 2.80525 2.87
128 2 0.691009 2.72873 2.87
127 2 1.53959 2.35651 2.87
106 3 -1.12681 -0.410124 3.83699
107 3 -0.599562 -1.03847 3.83699
108 3 0.208226 -1.18091 3.83699
109 3 0.918582 -0.770782 3.83699
101 3 1.19912 0 3.83699
104 3 -0.599562 1.03847 3.83699
105 3 -1.12681 0.410124 3.83699
103 3 0.208226 1.18091 3.83699
102 3 0.918582 0.770782 3.83699
ITEM: TIMESTEP
42408201
ITEM: NUMBER OF ATOMS
325
ITEM: BOX BOUNDS pp pp pp
-2.0000000000000000e+01 2.0000000000000000e+01
-2.0000000000000000e+01 2.0000000000000000e+01
-2.0000000000000000e+01 1.5000000000000000e+02
ITEM: ATOMS id type xu yu zu
322 2 -0.854926 -0.411711 -3.9064
323 2 -0.211149 -0.925106 -3.9064
324 2 0.591627 -0.741877 -3.9064
325 2 0 0 -4.02
318 2 0.948896 0 -3.9064
321 2 -0.854926 0.411711 -3.9064
320 2 -0.211149 0.925106 -3.9064
319 2 0.591627 0.741877 -3.9064
299 2 -1.58113 -2.09376 -3.04575
300 2 -0.71801 -2.52354 -3.04575
301 2 0.242085 -2.61251 -3.04575
302 2 1.16948 -2.34864 -3.04575
298 2 -2.23072 -1.3812 -3.04575
314 2 -0.651552 -1.718 -3.57552
315 2 0.221474 -1.824 -3.57552
316 2 1.04376 -1.51215 -3.57552
303 2 1.93894 -1.76758 -3.04575
297 2 -2.57903 -0.482104 -3.04575
312 2 -1.78401 -0.439719 -3.57552
313 2 -1.37531 -1.21842 -3.57552
317 2 1.62694 -0.853883 -3.57552
304 2 2.44653 -0.94779 -3.04575
54 1 -0.473717 0.125277 -3.00716
305 2 1.8374 0 -3.57552
288 2 2.6237 0 -3.04575
296 2 -2.57903 0.482104 -3.04575
310 2 -1.37531 1.21842 -3.57552
311 2 -1.78401 0.439719 -3.57552
306 2 1.62694 0.853883 -3.57552
289 2 2.44653 0.94779 -3.04575
295 2 -2.23072 1.3812 -3.04575
309 2 -0.651552 1.718 -3.57552
308 2 0.221474 1.824 -3.57552
307 2 1.04376 1.51215 -3.57552
290 2 1.93894 1.76758 -3.04575
294 2 -1.58113 2.09376 -3.04575
293 2 -0.71801 2.52354 -3.04575
292 2 0.242085 2.61251 -3.04575
291 2 1.16948 2.34864 -3.04575
281 2 -1.35594 -2.96909 -2.34656
282 2 -0.464524 -3.23083 -2.34656
283 2 0.464524 -3.23083 -2.34656
284 2 1.35594 -2.96909 -2.34656
280 2 -2.1375 -2.46681 -2.34656
285 2 2.1375 -2.46681 -2.34656
279 2 -2.7459 -1.76468 -2.34656
56 1 -0.14156 -1.59618 -2.40203
286 2 2.7459 -1.76468 -2.34656
278 2 -3.13184 -0.919591 -2.34656
11 1 -1.49332 -0.643089 -2.57094
55 1 -0.347644 -0.752977 -2.79696
287 2 3.13184 -0.919591 -2.34656
277 2 -3.26406 1.84926e-15 -2.34656
12 1 -1.66127 0.316186 -2.50561
1 1 0.879293 -0.367409 -2.88439
266 2 3.26406 0 -2.34656
276 2 -3.13184 0.919591 -2.34656
53 1 -0.267524 0.976249 -2.59293
2 1 0.957461 0.629178 -2.77395
267 2 3.13184 0.919591 -2.34656
275 2 -2.7459 1.76468 -2.34656
13 1 -1.68737 1.27932 -2.16336
3 1 1.14582 1.4588 -2.35199
268 2 2.7459 1.76468 -2.34656
274 2 -2.1375 2.46681 -2.34656
269 2 2.1375 2.46681 -2.34656
273 2 -1.35594 2.96909 -2.34656
272 2 -0.464524 3.23083 -2.34656
271 2 0.464524 3.23083 -2.34656
270 2 1.35594 2.96909 -2.34656
260 2 -6.83876e-16 -3.72285 -1.51684
258 2 -1.86142 -3.22408 -1.51684
259 2 -0.963544 -3.596 -1.51684
261 2 0.963544 -3.596 -1.51684
262 2 1.86142 -3.22408 -1.51684
257 2 -2.63245 -2.63245 -1.51684
57 1 0.0581494 -2.35269 -1.83279
72 1 1.22472 -2.19952 -1.51848
263 2 2.63245 -2.63245 -1.51684
256 2 -3.22408 -1.86142 -1.51684
71 1 0.825971 -1.46163 -1.95497
264 2 3.22408 -1.86142 -1.51684
255 2 -3.596 -0.963544 -1.51684
29 1 -2.33324 -0.921097 -1.44968
10 1 -1.05555 -1.15838 -1.85824
70 1 0.258881 -0.678415 -1.90676
265 2 3.596 -0.963544 -1.51684
254 2 -3.72285 4.55917e-16 -1.51684
30 1 -2.51364 0.00226025 -1.67261
69 1 -0.29914 0.080834 -1.83376
242 2 3.72285 0 -1.51684
253 2 -3.596 0.963544 -1.51684
31 1 -2.43962 0.865965 -1.31989
243 2 3.596 0.963544 -1.51684
252 2 -3.22408 1.86142 -1.51684
14 1 -1.51415 1.99077 -1.5655
52 1 0.0159241 1.6819 -2.07539
4 1 1.3626 1.41618 -1.42228
244 2 3.22408 1.86142 -1.51684
251 2 -2.63245 2.63245 -1.51684
245 2 2.63245 2.63245 -1.51684
250 2 -1.86142 3.22408 -1.51684
249 2 -0.963544 3.596 -1.51684
247 2 0.963544 3.596 -1.51684
246 2 1.86142 3.22408 -1.51684
248 2 2.27959e-16 3.72285 -1.51684
234 2 -1.4094 -3.71628 -0.602743
235 2 -0.47908 -3.94558 -0.602743
236 2 0.47908 -3.94558 -0.602743
237 2 1.4094 -3.71628 -0.602743
233 2 -2.25781 -3.271 -0.602743
238 2 2.25781 -3.271 -0.602743
232 2 -2.975 -2.63562 -0.602743
58 1 0.199772 -2.77745 -0.979048
73 1 1.35634 -2.62083 -0.68313
239 2 2.975 -2.63562 -0.602743
231 2 -3.5193 -1.84707 -0.602743
28 1 -2.01833 -1.62723 -0.879014
24 1 0.977927 -1.67383 -0.582574
23 1 1.70326 -1.30577 -1.05323
240 2 3.5193 -1.84707 -0.602743
230 2 -3.85906 -0.951174 -0.602743
9 1 -0.537961 -1.03355 -1.01642
22 1 2.34128 -0.676342 -1.28722
241 2 3.85906 -0.951174 -0.602743
229 2 -3.97456 -1.27831e-15 -0.602743
94 1 -2.84697 -0.19774 -0.700594
95 1 -1.88979 0.0182862 -0.587639
85 1 1.05172 0.244197 -1.20874
21 1 2.62636 0.184602 -1.14539
216 2 3.97456 0 -0.602743
228 2 -3.85906 0.951174 -0.602743
67 1 -1.35014 1.21067 -0.629237
68 1 -0.858657 0.737702 -1.2644
84 1 0.287452 0.83174 -1.21268
5 1 1.25479 0.990652 -0.513451
20 1 2.68852 1.09512 -0.935256
217 2 3.85906 0.951174 -0.602743
227 2 -3.5193 1.84707 -0.602743
32 1 -2.35772 1.69963 -0.761486
51 1 0.336161 2.01386 -1.27615
83 1 -0.253926 1.40894 -0.613598
19 1 2.23854 1.87261 -0.661213
218 2 3.5193 1.84707 -0.602743
226 2 -2.975 2.63562 -0.602743
15 1 -1.06826 2.62624 -0.947551
219 2 2.975 2.63562 -0.602743
225 2 -2.25781 3.271 -0.602743
16 1 -0.266582 2.90105 -0.561472
220 2 2.25781 3.271 -0.602743
224 2 -1.4094 3.71628 -0.602743
223 2 -0.47908 3.94558 -0.602743
222 2 0.47908 3.94558 -0.602743
221 2 1.4094 3.71628 -0.602743
59 1 0.144056 -3.10771 -0.0982612
26 1 -0.652585 -2.08744 0.286676
74 1 1.19988 -2.67286 0.263671
27 1 -1.43496 -1.95315 -0.240814
25 1 0.20911 -2.00024 -0.10692
42 1 2.58154 -1.41726 -0.0324322
93 1 -2.83138 -0.711549 0.0931481
8 1 -0.0434978 -0.856694 -0.229768
41 1 2.85326 -0.464367 0.0560252
96 1 -1.03495 0.092578 -0.200131
86 1 1.51558 -0.0177103 -0.424957
66 1 -1.62615 0.927391 0.306872
40 1 2.88986 0.416395 0.313502
82 1 -0.682816 1.74167 0.196459
50 1 0.610829 1.96134 -0.379367
33 1 -2.12559 2.1283 0.0513319
18 1 1.55069 2.5613 -0.394463
17 1 0.67899 2.94582 -0.31669
208 2 -1.42026 -3.74491 0.344879
209 2 -0.482771 -3.97598 0.344879
210 2 0.482771 -3.97598 0.344879
211 2 1.42026 -3.74491 0.344879
207 2 -2.2752 -3.2962 0.344879
60 1 -0.172103 -2.9764 0.781823
212 2 2.2752 -3.2962 0.344879
206 2 -2.99792 -2.65592 0.344879
75 1 0.89711 -2.59047 1.13158
213 2 2.99792 -2.65592 0.344879
205 2 -3.54641 -1.8613 0.344879
91 1 -1.43822 -1.29177 1.11921
43 1 2.14187 -2.01899 0.543751
214 2 3.54641 -1.8613 0.344879
204 2 -3.8888 -0.958502 0.344879
92 1 -2.31875 -1.12831 0.774179
215 2 3.8888 -0.958502 0.344879
203 2 -4.00518 -1.28816e-15 0.344879
97 1 -0.423196 0.0719539 0.561278
7 1 0.520303 -0.338585 0.372608
87 1 1.57653 -0.337097 0.437047
190 2 4.00518 0 0.344879
202 2 -3.8888 0.958502 0.344879
65 1 -1.78107 0.420586 1.10565
6 1 1.05408 0.496499 0.336646
191 2 3.8888 0.958502 0.344879
201 2 -3.54641 1.8613 0.344879
81 1 -0.753644 1.42071 1.08967
49 1 0.893033 1.62322 0.484346
39 1 2.58158 1.24502 0.785174
192 2 3.54641 1.8613 0.344879
200 2 -2.99792 2.65592 0.344879
34 1 -1.55824 2.34412 0.78938
35 1 -0.681125 2.47994 1.10597
193 2 2.99792 2.65592 0.344879
199 2 -2.2752 3.2962 0.344879
194 2 2.2752 3.2962 0.344879
198 2 -1.42026 3.74491 0.344879
197 2 -0.482771 3.97598 0.344879
196 2 0.482771 3.97598 0.344879
195 2 1.42026 3.74491 0.344879
183 2 -0.714487 -3.74547 1.27332
184 2 0.239421 -3.80549 1.27332
181 2 -2.43051 -2.93798 1.27332
182 2 -1.6235 -3.45012 1.27332
185 2 1.17829 -3.62639 1.27332
186 2 2.04311 -3.21943 1.27332
180 2 -3.08479 -2.24123 1.27332
61 1 -0.660249 -2.45575 1.39748
76 1 0.438281 -2.30984 1.86903
187 2 2.77957 -2.61019 1.27332
179 2 -3.54525 -1.40366 1.27332
90 1 -0.482229 -1.3027 1.31663
44 1 1.67078 -2.00678 1.35502
188 2 3.34137 -1.83693 1.27332
178 2 -3.78295 -0.477897 1.27332
89 1 0.406628 -1.13416 1.40682
88 1 1.33794 -0.78608 1.25456
189 2 3.69322 -0.948258 1.27332
64 1 -1.88601 -0.200326 1.83988
98 1 0.030323 0.0579329 1.49648
165 2 3.81301 0 1.27332
177 2 -3.78295 0.477897 1.27332
80 1 -0.841423 0.829837 1.83503
48 1 1.15533 1.14254 1.24869
47 1 1.34369 0.41031 1.83534
166 2 3.69322 0.948258 1.27332
176 2 -3.54525 1.40366 1.27332
38 1 2.00257 1.90758 1.1681
167 2 3.34137 1.83693 1.27332
175 2 -3.08479 2.24123 1.27332
36 1 0.27985 2.59177 1.39087
37 1 1.23982 2.35719 1.37885
168 2 2.77957 2.61019 1.27332
174 2 -2.43051 2.93798 1.27332
173 2 -1.6235 3.45012 1.27332
170 2 1.17829 3.62639 1.27332
169 2 2.04311 3.21943 1.27332
172 2 -0.714487 3.74547 1.27332
171 2 0.239421 3.80549 1.27332
158 2 -1.41604 -3.1007 2.13093
159 2 -0.485115 -3.37405 2.13093
160 2 0.485115 -3.37405 2.13093
161 2 1.41604 -3.1007 2.13093
157 2 -2.23225 -2.57616 2.13093
162 2 2.23225 -2.57616 2.13093
156 2 -2.86762 -1.84291 2.13093
62 1 -1.19238 -1.88127 1.97172
77 1 -0.0841532 -1.65163 2.26792
45 1 1.58551 -1.43276 2.11581
163 2 2.86762 -1.84291 2.13093
155 2 -3.27067 -0.960355 2.13093
63 1 -1.60605 -1.0585 2.21718
78 1 -0.526851 -0.854279 2.52369
46 1 1.47866 -0.485438 2.28072
164 2 3.27067 -0.960355 2.13093
154 2 -3.40875 1.93124e-15 2.13093
79 1 -0.854273 0.0783819 2.43257
99 1 0.28332 -0.0125823 2.44317
143 2 3.40875 0 2.13093
153 2 -3.27067 0.960355 2.13093
144 2 3.27067 0.960355 2.13093
152 2 -2.86762 1.84291 2.13093
145 2 2.86762 1.84291 2.13093
151 2 -2.23225 2.57616 2.13093
146 2 2.23225 2.57616 2.13093
150 2 -1.41604 3.1007 2.13093
149 2 -0.485115 3.37405 2.13093
148 2 0.485115 3.37405 2.13093
147 2 1.41604 3.1007 2.13093
136 2 -1.90646 -2.07097 2.87
137 2 -1.13072 -2.57778 2.87
138 2 -0.23245 -2.80525 2.87
139 2 0.691009 -2.72873 2.87
140 2 1.53959 -2.35651 2.87
135 2 -2.4756 -1.33973 2.87
119 2 -1.28714 -1.61402 3.44943
120 2 -0.459375 -2.01265 3.44943
121 2 0.459375 -2.01265 3.44943
122 2 1.28714 -1.61402 3.44943
141 2 2.22133 -1.72893 2.87
134 2 -2.77648 -0.463312 2.87
118 2 -1.85997 -0.895715 3.44943
123 2 1.85997 -0.895715 3.44943
142 2 2.66235 -0.913986 2.87
117 2 -2.06441 2.52818e-16 3.44943
100 1 -0.0689623 -0.0477348 3.33655
110 2 2.06441 0 3.44943
124 2 2.81487 0 2.87
133 2 -2.77648 0.463312 2.87
116 2 -1.85997 0.895715 3.44943
111 2 1.85997 0.895715 3.44943
125 2 2.66235 0.913986 2.87
132 2 -2.4756 1.33973 2.87
115 2 -1.28714 1.61402 3.44943
114 2 -0.459375 2.01265 3.44943
113 2 0.459375 2.01265 3.44943
112 2 1.28714 1.61402 3.44943
126 2 2.22133 1.72893 2.87
131 2 -1.90646 2.07097 2.87
130 2 -1.13072 2.57778 2.87
129 2 -0.23245 2.80525 2.87
128 2 0.691009 2.72873 2.87
127 2 1.53959 2.35651 2.87
106 3 -1.12681 -0.410124 3.83699
107 3 -0.599562 -1.03847 3.83699
108 3 0.208226 -1.18091 3.83699
109 3 0.918582 -0.770782 3.83699
101 3 1.19912 0 3.83699
104 3 -0.599562 1.03847 3.83699
105 3 -1.12681 0.410124 3.83699
103 3 0.208226 1.18091 3.83699
102 3 0.918582 0.770782 3.83699
