ITEM: TIMESTEP
64304400
ITEM: NUMBER OF ATOMS
325
ITEM: BOX BOUNDS pp pp pp
-2.0000000000000000e+01 2.0000000000000000e+01
-2.0000000000000000e+01 2.0000000000000000e+01
-2.0000000000000000e+01 1.5000000000000000e+02
ITEM: ATOMS id type xu yu zu
322 2 -0.854926 -0.411711 -3.9064
323 2 -0.211149 -0.925106 -3.9064
324 2 0.591627 -0.741877 -3.9064
325 2 0 0 -4.02
318 2 0.948896 0 -3.9064
321 2 -0.854926 0.411711 -3.9064
320 2 -0.211149 0.925106 -3.9064
319 2 0.591627 0.741877 -3.9064
299 2 -1.58113 -2.09376 -3.04575
300 2 -0.71801 -2.52354 -3.04575
301 2 0.242085 -2.61251 -3.04575
302 2 1.16948 -2.34864 -3.04575
298 2 -2.23072 -1.3812 -3.04575
314 2 -0.651552 -1.718 -3.57552
315 2 0.221474 -1.824 -3.57552
316 2 1.04376 -1.51215 -3.57552
303 2 1.93894 -1.76758 -3.04575
297 2 -2.57903 -0.482104 -3.04575
312 2 -1.78401 -0.439719 -3.57552
313 2 -1.37531 -1.21842 -3.57552
317 2 1.62694 -0.853883 -3.57552
304 2 2.44653 -0.94779 -3.04575
305 2 1.8374 0 -3.57552
288 2 2.6237 0 -3.04575
296 2 -2.57903 0.482104 -3.04575
310 2 -1.37531 1.21842 -3.57552
311 2 -1.78401 0.439719 -3.57552
306 2 1.62694 0.853883 -3.57552
289 2 2.44653 0.94779 -3.04575
295 2 -2.23072 1.3812 -3.04575
309 2 -0.651552 1.718 -3.57552
308 2 0.221474 1.824 -3.57552
307 2 1.04376 1.51215 -3.57552
290 2 1.93894 1.76758 -3.04575
294 2 -1.58113 2.09376 -3.04575
293 2 -0.71801 2.52354 -3.04575
292 2 0.242085 2.61251 -3.04575
291 2 1.16948 2.34864 -3.04575
281 2 -1.35594 -2.96909 -2.34656
282 2 -0.464524 -3.23083 -2.34656
283 2 0.464524 -3.23083 -2.34656
284 2 1.35594 -2.96909 -2.34656
280 2 -2.1375 -2.46681 -2.34656
285 2 2.1375 -2.46681 -2.34656
279 2 -2.7459 -1.76468 -2.34656
18 1 0.0547966 -2.01379 -2.19664
35 1 1.14837 -1.60919 -2.22733
286 2 2.7459 -1.76468 -2.34656
278 2 -3.13184 -0.919591 -2.34656
17 1 -0.382492 -1.21656 -2.68646
34 1 0.709766 -0.789247 -2.62173
287 2 3.13184 -0.919591 -2.34656
277 2 -3.26406 1.84926e-15 -2.34656
15 1 -1.49657 0.363595 -2.4875
16 1 -0.823809 -0.375107 -2.7815
33 1 0.199893 0.0320305 -2.81127
266 2 3.26406 0 -2.34656
276 2 -3.13184 0.919591 -2.34656
32 1 -0.355476 0.851428 -2.90591
76 1 1.58473 0.422317 -2.316
267 2 3.13184 0.919591 -2.34656
275 2 -2.7459 1.76468 -2.34656
31 1 -1.0179 1.35024 -2.43694
75 1 1.11938 1.28555 -2.43048
268 2 2.7459 1.76468 -2.34656
274 2 -2.1375 2.46681 -2.34656
269 2 2.1375 2.46681 -2.34656
273 2 -1.35594 2.96909 -2.34656
272 2 -0.464524 3.23083 -2.34656
271 2 0.464524 3.23083 -2.34656
270 2 1.35594 2.96909 -2.34656
260 2 -6.83876e-16 -3.72285 -1.51684
258 2 -1.86142 -3.22408 -1.51684
259 2 -0.963544 -3.596 -1.51684
261 2 0.963544 -3.596 -1.51684
262 2 1.86142 -3.22408 -1.51684
257 2 -2.63245 -2.63245 -1.51684
19 1 0.089381 -2.52885 -1.36881
36 1 1.44658 -2.31592 -1.57979
263 2 2.63245 -2.63245 -1.51684
256 2 -3.22408 -1.86142 -1.51684
6 1 -1.35399 -1.92425 -1.76182
264 2 3.22408 -1.86142 -1.51684
255 2 -3.596 -0.963544 -1.51684
5 1 -1.62809 -1.03498 -1.83313
47 1 -0.325942 -0.558544 -1.70081
48 1 0.421339 -1.07525 -1.43112
78 1 2.23825 -1.08036 -1.5235
265 2 3.596 -0.963544 -1.51684
254 2 -3.72285 4.55917e-16 -1.51684
46 1 -1.06352 0.0772432 -1.56266
94 1 0.520679 0.400015 -1.74745
77 1 1.99075 -0.398504 -2.06867
242 2 3.72285 0 -1.51684
253 2 -3.596 0.963544 -1.51684
14 1 -2.05648 0.597669 -1.81417
60 1 2.44904 0.700398 -1.37936
243 2 3.596 0.963544 -1.51684
252 2 -3.22408 1.86142 -1.51684
30 1 -1.63638 1.68342 -1.7964
92 1 -0.542127 1.92027 -1.56795
93 1 0.0364342 1.23569 -1.97156
59 1 1.8679 1.44824 -1.48214
244 2 3.22408 1.86142 -1.51684
251 2 -2.63245 2.63245 -1.51684
73 1 0.186323 2.68703 -1.43497
74 1 0.682786 2.05167 -2.09099
245 2 2.63245 2.63245 -1.51684
250 2 -1.86142 3.22408 -1.51684
249 2 -0.963544 3.596 -1.51684
247 2 0.963544 3.596 -1.51684
246 2 1.86142 3.22408 -1.51684
248 2 2.27959e-16 3.72285 -1.51684
234 2 -1.4094 -3.71628 -0.602743
235 2 -0.47908 -3.94558 -0.602743
236 2 0.47908 -3.94558 -0.602743
237 2 1.4094 -3.71628 -0.602743
233 2 -2.25781 -3.271 -0.602743
238 2 2.25781 -3.271 -0.602743
232 2 -2.975 -2.63562 -0.602743
7 1 -1.39247 -2.1959 -0.885697
37 1 1.23401 -2.53237 -0.681506
239 2 2.975 -2.63562 -0.602743
231 2 -3.5193 -1.84707 -0.602743
49 1 1.08208 -1.35542 -0.814443
79 1 2.30432 -1.69394 -0.796108
240 2 3.5193 -1.84707 -0.602743
230 2 -3.85906 -0.951174 -0.602743
4 1 -1.95508 -0.45076 -1.05689
241 2 3.85906 -0.951174 -0.602743
229 2 -3.97456 -1.27831e-15 -0.602743
95 1 0.644528 -0.0376497 -0.909703
61 1 2.78538 -0.0151047 -0.860019
216 2 3.97456 0 -0.602743
228 2 -3.85906 0.951174 -0.602743
13 1 -2.55766 0.563989 -1.04132
45 1 -1.51239 0.694283 -0.971251
217 2 3.85906 0.951174 -0.602743
227 2 -3.5193 1.84707 -0.602743
29 1 -2.16054 1.73158 -0.985276
58 1 1.2486 2.02333 -1.10473
218 2 3.5193 1.84707 -0.602743
226 2 -2.975 2.63562 -0.602743
91 1 -1.10971 2.23612 -0.851733
219 2 2.975 2.63562 -0.602743
225 2 -2.25781 3.271 -0.602743
72 1 -0.203409 2.90804 -0.594274
220 2 2.25781 3.271 -0.602743
224 2 -1.4094 3.71628 -0.602743
223 2 -0.47908 3.94558 -0.602743
222 2 0.47908 3.94558 -0.602743
221 2 1.4094 3.71628 -0.602743
8 1 -1.6394 -2.19864 0.0178737
20 1 -0.0482266 -2.80604 -0.455185
38 1 0.888418 -2.53263 0.253051
80 1 2.1711 -2.08042 -0.000554097
96 1 0.763026 -0.467251 -0.0377828
50 1 1.62565 -1.1975 -0.0104515
62 1 2.92293 -0.632361 -0.111302
12 1 -2.92919 0.26351 -0.224552
3 1 -1.90775 -0.361991 -0.0378451
44 1 -1.66684 1.12194 -0.126739
28 1 -2.59021 1.61506 -0.117415
90 1 -1.62025 2.39939 -0.114107
57 1 0.727139 2.51677 -0.386555
208 2 -1.42026 -3.74491 0.344879
209 2 -0.482771 -3.97598 0.344879
210 2 0.482771 -3.97598 0.344879
211 2 1.42026 -3.74491 0.344879
207 2 -2.2752 -3.2962 0.344879
21 1 -0.370389 -2.88338 0.459451
212 2 2.2752 -3.2962 0.344879
206 2 -2.99792 -2.65592 0.344879
81 1 1.79812 -2.25511 0.890409
213 2 2.99792 -2.65592 0.344879
205 2 -3.54641 -1.8613 0.344879
9 1 -2.04353 -1.84944 0.791459
1 1 -0.774839 -1.6884 0.448507
39 1 0.393039 -2.00229 0.876116
214 2 3.54641 -1.8613 0.344879
204 2 -3.8888 -0.958502 0.344879
10 1 -2.55793 -1.06129 0.855169
2 1 -1.38824 -0.929923 0.502105
97 1 0.780177 -0.741009 0.929454
51 1 1.79408 -0.582132 0.685001
63 1 2.88282 -0.983862 0.767329
215 2 3.8888 -0.958502 0.344879
203 2 -4.00518 -1.28816e-15 0.344879
11 1 -2.98309 -0.317521 0.514742
190 2 4.00518 0 0.344879
202 2 -3.8888 0.958502 0.344879
27 1 -2.69064 1.12534 0.696358
43 1 -1.49196 1.02592 0.812043
191 2 3.8888 0.958502 0.344879
201 2 -3.54641 1.8613 0.344879
192 2 3.54641 1.8613 0.344879
200 2 -2.99792 2.65592 0.344879
89 1 -1.91333 2.04295 0.738185
56 1 0.554066 2.6904 0.577341
193 2 2.99792 2.65592 0.344879
199 2 -2.2752 3.2962 0.344879
71 1 -0.519038 2.91729 0.350488
194 2 2.2752 3.2962 0.344879
198 2 -1.42026 3.74491 0.344879
197 2 -0.482771 3.97598 0.344879
196 2 0.482771 3.97598 0.344879
195 2 1.42026 3.74491 0.344879
183 2 -0.714487 -3.74547 1.27332
184 2 0.239421 -3.80549 1.27332
181 2 -2.43051 -2.93798 1.27332
182 2 -1.6235 -3.45012 1.27332
185 2 1.17829 -3.62639 1.27332
186 2 2.04311 -3.21943 1.27332
180 2 -3.08479 -2.24123 1.27332
23 1 -1.40893 -2.08059 1.71765
22 1 -0.81526 -2.71411 1.30465
82 1 1.29914 -2.25026 1.68018
187 2 2.77957 -2.61019 1.27332
179 2 -3.54525 -1.40366 1.27332
24 1 -1.86595 -1.26205 1.74405
40 1 -0.105756 -1.33966 1.30822
188 2 3.34137 -1.83693 1.27332
178 2 -3.78295 -0.477897 1.27332
25 1 -2.24485 -0.408883 1.60537
41 1 -0.597966 -0.526531 1.57924
98 1 0.686126 -0.79456 1.85639
64 1 2.45867 -0.771894 1.61492
189 2 3.69322 -0.948258 1.27332
26 1 -2.52758 0.38692 1.2514
42 1 -1.04328 0.33102 1.32977
52 1 1.88713 0.0660572 1.33043
165 2 3.81301 0 1.27332
177 2 -3.78295 0.477897 1.27332
53 1 1.73673 0.936898 1.77479
166 2 3.69322 0.948258 1.27332
176 2 -3.54525 1.40366 1.27332
88 1 -2.04591 1.50833 1.48133
54 1 1.38478 1.84279 1.89154
167 2 3.34137 1.83693 1.27332
175 2 -3.08479 2.24123 1.27332
70 1 -0.604003 2.5479 1.23373
55 1 0.905359 2.44152 1.42223
168 2 2.77957 2.61019 1.27332
174 2 -2.43051 2.93798 1.27332
173 2 -1.6235 3.45012 1.27332
170 2 1.17829 3.62639 1.27332
169 2 2.04311 3.21943 1.27332
172 2 -0.714487 3.74547 1.27332
171 2 0.239421 3.80549 1.27332
158 2 -1.41604 -3.1007 2.13093
159 2 -0.485115 -3.37405 2.13093
160 2 0.485115 -3.37405 2.13093
161 2 1.41604 -3.1007 2.13093
157 2 -2.23225 -2.57616 2.13093
162 2 2.23225 -2.57616 2.13093
156 2 -2.86762 -1.84291 2.13093
84 1 -0.229165 -1.44961 2.56785
83 1 0.516605 -1.88628 2.24069
163 2 2.86762 -1.84291 2.13093
155 2 -3.27067 -0.960355 2.13093
85 1 -0.940878 -0.803945 2.67917
65 1 1.89825 -0.442012 2.24383
164 2 3.27067 -0.960355 2.13093
154 2 -3.40875 1.93124e-15 2.13093
86 1 -1.47181 0.0161235 2.42651
66 1 1.2036 -0.0186824 2.73337
143 2 3.40875 0 2.13093
153 2 -3.27067 0.960355 2.13093
87 1 -1.91183 0.791173 2.13575
144 2 3.27067 0.960355 2.13093
152 2 -2.86762 1.84291 2.13093
69 1 -0.510683 1.98737 2.0389
68 1 -0.0732398 1.26993 2.56932
145 2 2.86762 1.84291 2.13093
151 2 -2.23225 2.57616 2.13093
146 2 2.23225 2.57616 2.13093
150 2 -1.41604 3.1007 2.13093
149 2 -0.485115 3.37405 2.13093
148 2 0.485115 3.37405 2.13093
147 2 1.41604 3.1007 2.13093
136 2 -1.90646 -2.07097 2.87
137 2 -1.13072 -2.57778 2.87
138 2 -0.23245 -2.80525 2.87
139 2 0.691009 -2.72873 2.87
140 2 1.53959 -2.35651 2.87
135 2 -2.4756 -1.33973 2.87
119 2 -1.28714 -1.61402 3.44943
120 2 -0.459375 -2.01265 3.44943
121 2 0.459375 -2.01265 3.44943
122 2 1.28714 -1.61402 3.44943
141 2 2.22133 -1.72893 2.87
134 2 -2.77648 -0.463312 2.87
118 2 -1.85997 -0.895715 3.44943
99 1 0.372339 -0.59338 2.78486
123 2 1.85997 -0.895715 3.44943
142 2 2.66235 -0.913986 2.87
117 2 -2.06441 2.52818e-16 3.44943
100 1 -0.162301 -0.101341 3.31543
110 2 2.06441 0 3.44943
124 2 2.81487 0 2.87
133 2 -2.77648 0.463312 2.87
116 2 -1.85997 0.895715 3.44943
67 1 0.509984 0.592247 2.7768
111 2 1.85997 0.895715 3.44943
125 2 2.66235 0.913986 2.87
132 2 -2.4756 1.33973 2.87
115 2 -1.28714 1.61402 3.44943
114 2 -0.459375 2.01265 3.44943
113 2 0.459375 2.01265 3.44943
112 2 1.28714 1.61402 3.44943
126 2 2.22133 1.72893 2.87
131 2 -1.90646 2.07097 2.87
130 2 -1.13072 2.57778 2.87
129 2 -0.23245 2.80525 2.87
128 2 0.691009 2.72873 2.87
127 2 1.53959 2.35651 2.87
106 3 -1.12681 -0.410124 3.83699
107 3 -0.599562 -1.03847 3.83699
108 3 0.208226 -1.18091 3.83699
109 3 0.918582 -0.770782 3.83699
101 3 1.19912 0 3.83699
104 3 -0.599562 1.03847 3.83699
105 3 -1.12681 0.410124 3.83699
103 3 0.208226 1.18091 3.83699
102 3 0.918582 0.770782 3.83699
ITEM: TIMESTEP
64304401
ITEM: NUMBER OF ATOMS
325
ITEM: BOX BOUNDS pp pp pp
-2.0000000000000000e+01 2.0000000000000000e+01
-2.0000000000000000e+01 2.0000000000000000e+01
-2.0000000000000000e+01 1.5000000000000000e+02
ITEM: ATOMS id type xu yu zu
322 2 -0.854926 -0.411711 -3.9064
323 2 -0.211149 -0.925106 -3.9064
324 2 0.591627 -0.741877 -3.9064
325 2 0 0 -4.02
318 2 0.948896 0 -3.9064
321 2 -0.854926 0.411711 -3.9064
320 2 -0.211149 0.925106 -3.9064
319 2 0.591627 0.741877 -3.9064
299 2 -1.58113 -2.09376 -3.04575
300 2 -0.71801 -2.52354 -3.04575
301 2 0.242085 -2.61251 -3.04575
302 2 1.16948 -2.34864 -3.04575
298 2 -2.23072 -1.3812 -3.04575
314 2 -0.651552 -1.718 -3.57552
315 2 0.221474 -1.824 -3.57552
316 2 1.04376 -1.51215 -3.57552
303 2 1.93894 -1.76758 -3.04575
297 2 -2.57903 -0.482104 -3.04575
312 2 -1.78401 -0.439719 -3.57552
313 2 -1.37531 -1.21842 -3.57552
317 2 1.62694 -0.853883 -3.57552
304 2 2.44653 -0.94779 -3.04575
305 2 1.8374 0 -3.57552
288 2 2.6237 0 -3.04575
296 2 -2.57903 0.482104 -3.04575
310 2 -1.37531 1.21842 -3.57552
311 2 -1.78401 0.439719 -3.57552
306 2 1.62694 0.853883 -3.57552
289 2 2.44653 0.94779 -3.04575
295 2 -2.23072 1.3812 -3.04575
309 2 -0.651552 1.718 -3.57552
308 2 0.221474 1.824 -3.57552
307 2 1.04376 1.51215 -3.57552
290 2 1.93894 1.76758 -3.04575
294 2 -1.58113 2.09376 -3.04575
293 2 -0.71801 2.52354 -3.04575
292 2 0.242085 2.61251 -3.04575
291 2 1.16948 2.34864 -3.04575
281 2 -1.35594 -2.96909 -2.34656
282 2 -0.464524 -3.23083 -2.34656
283 2 0.464524 -3.23083 -2.34656
284 2 1.35594 -2.96909 -2.34656
280 2 -2.1375 -2.46681 -2.34656
285 2 2.1375 -2.46681 -2.34656
279 2 -2.7459 -1.76468 -2.34656
18 1 0.0547958 -2.01382 -2.19676
35 1 1.14842 -1.60921 -2.22732
286 2 2.7459 -1.76468 -2.34656
278 2 -3.13184 -0.919591 -2.34656
17 1 -0.382483 -1.21667 -2.68632
34 1 0.709747 -0.789283 -2.6218
287 2 3.13184 -0.919591 -2.34656
277 2 -3.26406 1.84926e-15 -2.34656
15 1 -1.49645 0.363323 -2.48755
16 1 -0.823808 -0.375092 -2.78156
33 1 0.200033 0.0320838 -2.81126
266 2 3.26406 0 -2.34656
276 2 -3.13184 0.919591 -2.34656
32 1 -0.355554 0.851547 -2.90584
76 1 1.58478 0.422484 -2.31603
267 2 3.13184 0.919591 -2.34656
275 2 -2.7459 1.76468 -2.34656
31 1 -1.01811 1.35042 -2.43693
75 1 1.11931 1.28557 -2.43044
268 2 2.7459 1.76468 -2.34656
274 2 -2.1375 2.46681 -2.34656
269 2 2.1375 2.46681 -2.34656
273 2 -1.35594 2.96909 -2.34656
272 2 -0.464524 3.23083 -2.34656
271 2 0.464524 3.23083 -2.34656
270 2 1.35594 2.96909 -2.34656
260 2 -6.83876e-16 -3.72285 -1.51684
258 2 -1.86142 -3.22408 -1.51684
259 2 -0.963544 -3.596 -1.51684
261 2 0.963544 -3.596 -1.51684
262 2 1.86142 -3.22408 -1.51684
257 2 -2.63245 -2.63245 -1.51684
19 1 0.0894897 -2.52884 -1.36889
36 1 1.44663 -2.31578 -1.57996
263 2 2.63245 -2.63245 -1.51684
256 2 -3.22408 -1.86142 -1.51684
6 1 -1.35393 -1.92412 -1.76184
264 2 3.22408 -1.86142 -1.51684
255 2 -3.596 -0.963544 -1.51684
5 1 -1.628 -1.03495 -1.83322
47 1 -0.325908 -0.558499 -1.70078
48 1 0.421347 -1.07518 -1.4312
78 1 2.23808 -1.08027 -1.52352
265 2 3.596 -0.963544 -1.51684
254 2 -3.72285 4.55917e-16 -1.51684
46 1 -1.0635 0.0773131 -1.56272
94 1 0.520665 0.399835 -1.74738
77 1 1.99072 -0.398409 -2.06867
242 2 3.72285 0 -1.51684
253 2 -3.596 0.963544 -1.51684
14 1 -2.05639 0.597695 -1.81423
60 1 2.44899 0.700212 -1.37937
243 2 3.596 0.963544 -1.51684
252 2 -3.22408 1.86142 -1.51684
30 1 -1.6364 1.68336 -1.79645
92 1 -0.541983 1.92037 -1.56799
93 1 0.036225 1.2358 -1.97159
59 1 1.86776 1.44822 -1.48213
244 2 3.22408 1.86142 -1.51684
251 2 -2.63245 2.63245 -1.51684
73 1 0.186201 2.6871 -1.43483
74 1 0.682857 2.05152 -2.09086
245 2 2.63245 2.63245 -1.51684
250 2 -1.86142 3.22408 -1.51684
249 2 -0.963544 3.596 -1.51684
247 2 0.963544 3.596 -1.51684
246 2 1.86142 3.22408 -1.51684
248 2 2.27959e-16 3.72285 -1.51684
234 2 -1.4094 -3.71628 -0.602743
235 2 -0.47908 -3.94558 -0.602743
236 2 0.47908 -3.94558 -0.602743
237 2 1.4094 -3.71628 -0.602743
233 2 -2.25781 -3.271 -0.602743
238 2 2.25781 -3.271 -0.602743
232 2 -2.975 -2.63562 -0.602743
7 1 -1.39245 -2.19576 -0.885872
37 1 1.23401 -2.53228 -0.681328
239 2 2.975 -2.63562 -0.602743
231 2 -3.5193 -1.84707 -0.602743
49 1 1.08194 -1.35553 -0.814365
79 1 2.30431 -1.69389 -0.796148
240 2 3.5193 -1.84707 -0.602743
230 2 -3.85906 -0.951174 -0.602743
4 1 -1.95504 -0.450731 -1.05706
241 2 3.85906 -0.951174 -0.602743
229 2 -3.97456 -1.27831e-15 -0.602743
95 1 0.644493 -0.0377936 -0.90991
61 1 2.78531 -0.0148037 -0.859898
216 2 3.97456 0 -0.602743
228 2 -3.85906 0.951174 -0.602743
13 1 -2.55763 0.563989 -1.04138
45 1 -1.51248 0.694258 -0.97117
217 2 3.85906 0.951174 -0.602743
227 2 -3.5193 1.84707 -0.602743
29 1 -2.16051 1.73142 -0.985318
58 1 1.24869 2.0233 -1.1047
218 2 3.5193 1.84707 -0.602743
226 2 -2.975 2.63562 -0.602743
91 1 -1.10979 2.23607 -0.851586
219 2 2.975 2.63562 -0.602743
225 2 -2.25781 3.271 -0.602743
72 1 -0.203447 2.90802 -0.594205
220 2 2.25781 3.271 -0.602743
224 2 -1.4094 3.71628 -0.602743
223 2 -0.47908 3.94558 -0.602743
222 2 0.47908 3.94558 -0.602743
221 2 1.4094 3.71628 -0.602743
8 1 -1.63934 -2.19862 0.0177393
20 1 -0.0479998 -2.80611 -0.455341
38 1 0.88831 -2.53261 0.252964
80 1 2.17121 -2.08027 -0.000621154
96 1 0.762949 -0.467229 -0.0377852
50 1 1.62554 -1.19749 -0.0105381
62 1 2.92296 -0.632457 -0.111341
12 1 -2.92922 0.263331 -0.224402
3 1 -1.90788 -0.361974 -0.0376932
44 1 -1.66672 1.12196 -0.126896
28 1 -2.59021 1.61503 -0.117501
90 1 -1.62017 2.39944 -0.114082
57 1 0.727195 2.51685 -0.386546
208 2 -1.42026 -3.74491 0.344879
209 2 -0.482771 -3.97598 0.344879
210 2 0.482771 -3.97598 0.344879
211 2 1.42026 -3.74491 0.344879
207 2 -2.2752 -3.2962 0.344879
21 1 -0.370311 -2.88319 0.459369
212 2 2.2752 -3.2962 0.344879
206 2 -2.99792 -2.65592 0.344879
81 1 1.79803 -2.25529 0.890473
213 2 2.99792 -2.65592 0.344879
205 2 -3.54641 -1.8613 0.344879
9 1 -2.04344 -1.8494 0.791325
1 1 -0.774674 -1.68863 0.448654
39 1 0.393062 -2.00229 0.8762
214 2 3.54641 -1.8613 0.344879
204 2 -3.8888 -0.958502 0.344879
10 1 -2.55791 -1.06115 0.855034
2 1 -1.38813 -0.930003 0.502085
97 1 0.780199 -0.740902 0.929535
51 1 1.79409 -0.581954 0.68493
63 1 2.88279 -0.983852 0.767416
215 2 3.8888 -0.958502 0.344879
203 2 -4.00518 -1.28816e-15 0.344879
11 1 -2.98295 -0.317447 0.51458
190 2 4.00518 0 0.344879
202 2 -3.8888 0.958502 0.344879
27 1 -2.69067 1.12524 0.696471
43 1 -1.49186 1.0259 0.811993
191 2 3.8888 0.958502 0.344879
201 2 -3.54641 1.8613 0.344879
192 2 3.54641 1.8613 0.344879
200 2 -2.99792 2.65592 0.344879
89 1 -1.91314 2.04303 0.738195
56 1 0.55418 2.69055 0.577397
193 2 2.99792 2.65592 0.344879
199 2 -2.2752 3.2962 0.344879
71 1 -0.519077 2.91721 0.350428
194 2 2.2752 3.2962 0.344879
198 2 -1.42026 3.74491 0.344879
197 2 -0.482771 3.97598 0.344879
196 2 0.482771 3.97598 0.344879
195 2 1.42026 3.74491 0.344879
183 2 -0.714487 -3.74547 1.27332
184 2 0.239421 -3.80549 1.27332
181 2 -2.43051 -2.93798 1.27332
182 2 -1.6235 -3.45012 1.27332
185 2 1.17829 -3.62639 1.27332
186 2 2.04311 -3.21943 1.27332
180 2 -3.08479 -2.24123 1.27332
23 1 -1.40905 -2.08067 1.71781
22 1 -0.815307 -2.71427 1.30469
82 1 1.29932 -2.25024 1.68012
187 2 2.77957 -2.61019 1.27332
179 2 -3.54525 -1.40366 1.27332
24 1 -1.86578 -1.2621 1.74414
40 1 -0.105711 -1.33968 1.30823
188 2 3.34137 -1.83693 1.27332
178 2 -3.78295 -0.477897 1.27332
25 1 -2.24487 -0.408778 1.60551
41 1 -0.597916 -0.526581 1.57919
98 1 0.685965 -0.794599 1.8564
64 1 2.45867 -0.771821 1.61491
189 2 3.69322 -0.948258 1.27332
26 1 -2.52754 0.386909 1.25135
42 1 -1.04348 0.330915 1.32981
52 1 1.88708 0.0661067 1.33035
165 2 3.81301 0 1.27332
177 2 -3.78295 0.477897 1.27332
53 1 1.73671 0.936997 1.7747
166 2 3.69322 0.948258 1.27332
176 2 -3.54525 1.40366 1.27332
88 1 -2.04589 1.50844 1.48132
54 1 1.38464 1.84278 1.89157
167 2 3.34137 1.83693 1.27332
175 2 -3.08479 2.24123 1.27332
70 1 -0.604063 2.54783 1.23359
55 1 0.905359 2.44153 1.42246
168 2 2.77957 2.61019 1.27332
174 2 -2.43051 2.93798 1.27332
173 2 -1.6235 3.45012 1.27332
170 2 1.17829 3.62639 1.27332
169 2 2.04311 3.21943 1.27332
172 2 -0.714487 3.74547 1.27332
171 2 0.239421 3.80549 1.27332
158 2 -1.41604 -3.1007 2.13093
159 2 -0.485115 -3.37405 2.13093
160 2 0.485115 -3.37405 2.13093
161 2 1.41604 -3.1007 2.13093
157 2 -2.23225 -2.57616 2.13093
162 2 2.23225 -2.57616 2.13093
156 2 -2.86762 -1.84291 2.13093
84 1 -0.229143 -1.44954 2.56785
83 1 0.51661 -1.88611 2.24071
163 2 2.86762 -1.84291 2.13093
155 2 -3.27067 -0.960355 2.13093
85 1 -0.940855 -0.804044 2.67939
65 1 1.89821 -0.441848 2.24385
164 2 3.27067 -0.960355 2.13093
154 2 -3.40875 1.93124e-15 2.13093
86 1 -1.4718 0.0162159 2.42631
66 1 1.20372 -0.0185288 2.73337
143 2 3.40875 0 2.13093
153 2 -3.27067 0.960355 2.13093
87 1 -1.91183 0.791112 2.13576
144 2 3.27067 0.960355 2.13093
152 2 -2.86762 1.84291 2.13093
69 1 -0.510825 1.98755 2.03883
68 1 -0.0733014 1.26984 2.56936
145 2 2.86762 1.84291 2.13093
151 2 -2.23225 2.57616 2.13093
146 2 2.23225 2.57616 2.13093
150 2 -1.41604 3.1007 2.13093
149 2 -0.485115 3.37405 2.13093
148 2 0.485115 3.37405 2.13093
147 2 1.41604 3.1007 2.13093
136 2 -1.90646 -2.07097 2.87
137 2 -1.13072 -2.57778 2.87
138 2 -0.23245 -2.80525 2.87
139 2 0.691009 -2.72873 2.87
140 2 1.53959 -2.35651 2.87
135 2 -2.4756 -1.33973 2.87
119 2 -1.28714 -1.61402 3.44943
120 2 -0.459375 -2.01265 3.44943
121 2 0.459375 -2.01265 3.44943
122 2 1.28714 -1.61402 3.44943
141 2 2.22133 -1.72893 2.87
134 2 -2.77648 -0.463312 2.87
118 2 -1.85997 -0.895715 3.44943
99 1 0.372313 -0.593255 2.78481
123 2 1.85997 -0.895715 3.44943
142 2 2.66235 -0.913986 2.87
117 2 -2.06441 2.52818e-16 3.44943
100 1 -0.162199 -0.101246 3.31521
110 2 2.06441 0 3.44943
124 2 2.81487 0 2.87
133 2 -2.77648 0.463312 2.87
116 2 -1.85997 0.895715 3.44943
67 1 0.509883 0.592069 2.7768
111 2 1.85997 0.895715 3.44943
125 2 2.66235 0.913986 2.87
132 2 -2.4756 1.33973 2.87
115 2 -1.28714 1.61402 3.44943
114 2 -0.459375 2.01265 3.44943
113 2 0.459375 2.01265 3.44943
112 2 1.28714 1.61402 3.44943
126 2 2.22133 1.72893 2.87
131 2 -1.90646 2.07097 2.87
130 2 -1.13072 2.57778 2.87
129 2 -0.23245 2.80525 2.87
128 2 0.691009 2.72873 2.87
127 2 1.53959 2.35651 2.87
106 3 -1.12681 -0.410124 3.83699
107 3 -0.599562 -1.03847 3.83699
108 3 0.208226 -1.18091 3.83699
109 3 0.918582 -0.770782 3.83699
101 3 1.19912 0 3.83699
104 3 -0.599562 1.03847 3.83699
105 3 -1.12681 0.410124 3.83699
103 3 0.208226 1.18091 3.83699
102 3 0.918582 0.770782 3.83699
