#LAMMPS data file with capsid and monomers
325	 atoms
99	 bonds
98	 angles
97	 dihedrals

3	 atom types
1	 bond types
1	 angle types
1	 dihedral types

-20.0 20.0 xlo xhi
-20.0 20.0 ylo yhi
-20.0 150.0 zlo zhi

Atoms # angle

1 1 1 -0.1938482496166704 0.44723153929008175 0
2 1 1 0.26211127732123796 0.1406477635697373 0
3 1 1 0.3057274991030821 -0.3045238936060211 0
4 1 1 0.0482694265346252 -0.23149689821160646 0
5 1 1 -0.14537290302388414 -0.5025316565150847 0
6 1 1 -0.3670556748309116 -0.624149415316796 0
7 1 1 -0.4353037994036547 -1.043036438124662 0
8 1 1 0.31736486349159543 -1.6464196916101668 0
9 1 1 1.1876173831168713 -1.7569689772163917 0
10 1 1 1.4216684134421615 -0.9411584616152643 0
11 1 1 1.225049754462171 -0.21079602285563073 0
12 1 1 1.0032011189827168 0.2945278274644716 0
13 1 1 0.6379593205599219 0.9683487971792165 0
14 1 1 -0.1242531679567644 1.1800468494887364 0
15 1 1 -1.051244772502493 0.8058374573112911 0
16 1 1 -1.7904449147759693 0.3554827997925533 0
17 1 1 -2.434732743962456 -0.2810162572472064 0
18 1 1 -2.5123008881793156 -1.2456795147118283 0
19 1 1 -1.9781886423792212 -2.1421047165663416 0
20 1 1 -1.2506560025216513 -2.6211850998611683 0
21 1 1 -0.30672225116550933 -2.6031437664741746 0
22 1 1 0.6619941828323781 -2.76836536583908 0
23 1 1 1.349898635333719 -2.1662712389908307 0
24 1 1 2.0148833337267074 -1.447742482819659 0
25 1 1 2.054351553347013 -0.6444774263721341 0
26 1 1 2.25730078543909 0.029691236630056572 0
27 1 1 2.564369778177273 0.8456883352895527 0
28 1 1 1.924339431462198 1.4110953696399788 0
29 1 1 1.0105941674727013 1.5367007226499663 0
30 1 1 0.009335742497007799 1.4386001369986865 0
31 1 1 -0.8119458203554395 0.9756295039020858 0
32 1 1 -1.3480511559766035 0.22677161990570038 0
33 1 1 -1.5922073293378585 -0.6962511595500102 0
34 1 1 -1.4526173879366675 -1.6358620579046896 0
35 1 1 -0.5368662332372294 -1.7736074347223723 0
36 1 1 0.18528212204821232 -1.896624215479696 0
37 1 1 0.7630473202195429 -1.7171683793228103 0
38 1 1 0.840883177450324 -1.0032699982111928 0
39 1 1 1.3119038152984113 -0.33589492428757767 0
40 1 1 1.307271562812455 0.570973371583743 0
41 1 1 0.8831462713024829 1.2898583502564342 0
42 1 1 0.4433878666406437 2.122296706179665 0
43 1 1 -0.4382381703848597 2.3330438437027947 0
44 1 1 -1.183138093072719 1.8029620655770784 0
45 1 1 -1.3681960825201334 0.882700368154282 0
46 1 1 -1.150247758995106 0.06435620744182295 0
47 1 1 -0.535897571053112 -0.6748086010411749 0
48 1 1 -0.16710390229787506 -1.0117812998346252 0
49 1 1 -0.23834161475404606 -1.382539486660305 0
50 1 1 -0.711615852566809 -1.2695448331007557 0
51 1 1 -1.3655642215167674 -0.8139922243809513 0
52 1 1 -1.4987685835776858 0.18443698546269346 0
53 1 1 -1.1877299626011837 0.9570251004525554 0
54 1 1 -0.8707303722908155 1.7044564162243194 0
55 1 1 -0.537109354182117 2.609095193943335 0
56 1 1 -1.3311768076661517 2.393201584690299 0
57 1 1 -2.0532886920212374 1.8511309361122341 0
58 1 1 -2.343067609529017 0.9759231547440719 0
59 1 1 -2.3729475223594476 0.01646563119715831 0
60 1 1 -2.3899949044758397 -0.9602524188371001 0
61 1 1 -1.7354552785862265 -1.6900026313391823 0
62 1 1 -0.8652146404385155 -2.037285468894031 0
63 1 1 0.109246178939386 -2.0805849604914015 0
64 1 1 0.9658602989056464 -1.553129990375184 0
65 1 1 1.8976058493640868 -1.3141735865858701 0
66 1 1 2.190615099785888 -0.43240853366475973 0
67 1 1 2.2350335199595923 0.5322312795247066 0
68 1 1 2.0942819825752426 1.507876701665388 0
69 1 1 1.5248180022257252 2.23050960426148 0
70 1 1 1.0359919146036138 2.626806657619573 0
71 1 1 0.47028164390493454 3.0050197492188446 0
72 1 1 -0.31609399084374823 2.9151473537214154 0
73 1 1 -1.1494579254432513 2.555158178157691 0
74 1 1 -1.9197424814902373 2.0523054108839007 0
75 1 1 -2.575222835918779 1.608148033853873 0
76 1 1 -2.9318497341648215 0.7919897682219372 0
77 1 1 -2.9010411581026703 -0.24208320718112725 0
78 1 1 -2.565959736863217 -1.0892036993973142 0
79 1 1 -2.0161967214044783 -1.917197734516999 0
80 1 1 -1.1652739261568341 -2.392294188641921 0
81 1 1 -0.21413644818514743 -2.661733799048334 0
82 1 1 0.680797945977477 -2.808124818631347 0
83 1 1 1.5976866376105747 -2.5172903480864157 0
84 1 1 2.1433783993927276 -1.7904324956756 0
85 1 1 2.4181196156574902 -0.9665767948205202 0
86 1 1 2.320871889622323 -0.31492859959086805 0
87 1 1 1.7678091273065946 -0.002584119350300988 0
88 1 1 0.995696303044323 0.002387710174392602 0
89 1 1 0.05595521148660421 0.09082600037288814 0
90 1 1 -0.9181068639492824 0.4081286989365416 0
91 1 1 -1.4949405222118717 1.1314351318136373 0
92 1 1 -1.1356536726300448 1.8863216293761946 0
93 1 1 -0.3516011712218832 2.3745378711815506 0
94 1 1 0.5577220211982178 2.654871448164302 0
95 1 1 1.3935788428513969 2.4009387391812487 0
96 1 1 1.878329339903465 2.015418532869069 0
97 1 1 1.7745350940183786 1.3374335194999667 0
98 1 1 2.4234489775202332 0.6872917772204272 0
99 1 1 2.7164253615980547 -0.15067070146559458 0
100 1 1 3.091868060111713 -0.9156396357095472 0
101 1 3 1.199123532458328 0.0 3.8369913674524545
102 1 3 0.9185819186529016 0.770781749147768 3.8369913674524545
103 1 3 0.20822561620892094 1.1809061515843475 3.8369913674524545
104 1 3 -0.5995617662291638 1.038471441384646 3.8369913674524545
105 1 3 -1.1268075348618225 0.4101244024365797 3.8369913674524545
106 1 3 -1.1268075348618225 -0.41012440243657944 3.8369913674524545
107 1 3 -0.5995617662291646 -1.0384714413846459 3.8369913674524545
108 1 3 0.2082256162089204 -1.1809061515843478 3.8369913674524545
109 1 3 0.9185819186529014 -0.7707817491477683 3.8369913674524545
110 1 2 2.0644125880406006 0.0 3.449434832887774
111 1 2 1.859971472330443 0.895715052780411 3.449434832887774
112 1 2 1.2871401954721096 1.6140227541334449 3.449434832887774
113 1 2 0.45937501716196666 2.012653454340298 3.449434832887774
114 1 2 -0.45937501716196644 2.012653454340298 3.449434832887774
115 1 2 -1.2871401954721093 1.614022754133445 3.449434832887774
116 1 2 -1.8599714723304428 0.8957150527804112 3.449434832887774
117 1 2 -2.0644125880406006 2.528176268063425e-16 3.449434832887774
118 1 2 -1.859971472330443 -0.8957150527804107 3.449434832887774
119 1 2 -1.2871401954721098 -1.6140227541334446 3.449434832887774
120 1 2 -0.45937501716196694 -2.012653454340298 3.449434832887774
121 1 2 0.4593750171619644 -2.0126534543402985 3.449434832887774
122 1 2 1.2871401954721091 -1.614022754133445 3.449434832887774
123 1 2 1.8599714723304435 -0.8957150527804096 3.449434832887774
124 1 2 2.814868314368465 0.0 2.870002852396567
125 1 2 2.662350984846497 0.9139862475565227 2.870002852396567
126 1 2 2.2213266154844984 1.7289279032324476 2.870002852396567
127 1 2 1.5395870399010125 2.356513393512628 2.870002852396567
128 1 2 0.691009319389943 2.7287340925329846 2.870002852396567
129 1 2 -0.23244998299135508 2.805254111955436 2.870002852396567
130 1 2 -1.1307197228824288 2.577781320345123 2.870002852396567
131 1 2 -1.906458435874974 2.0709659242770533 2.870002852396567
132 1 2 -2.4756027955899205 1.3397292359663329 2.870002852396567
133 1 2 -2.7764771794675034 0.463312096897698 2.870002852396567
134 1 2 -2.7764771794675034 -0.46331209689769726 2.870002852396567
135 1 2 -2.4756027955899214 -1.3397292359663313 2.870002852396567
136 1 2 -1.9064584358749748 -2.0709659242770533 2.870002852396567
137 1 2 -1.1307197228824277 -2.577781320345124 2.870002852396567
138 1 2 -0.2324499829913564 -2.805254111955436 2.870002852396567
139 1 2 0.6910093193899418 -2.728734092532985 2.870002852396567
140 1 2 1.5395870399010116 -2.356513393512629 2.870002852396567
141 1 2 2.2213266154844993 -1.7289279032324465 2.870002852396567
142 1 2 2.662350984846497 -0.9139862475565235 2.870002852396567
143 1 2 3.408746473874539 0.0 2.13092643628256
144 1 2 3.270668290515814 0.9603548597088816 2.13092643628256
145 1 2 2.867620013672788 1.8429074801344165 2.13092643628256
146 1 2 2.232254217714883 2.5761586967122616 2.13092643628256
147 1 2 1.4160444607647262 3.1007048566881754 2.13092643628256
148 1 2 0.4851152031440859 3.374050349777041 2.13092643628256
149 1 2 -0.48511520314408557 3.3740503497770415 2.13092643628256
150 1 2 -1.4160444607647258 3.100704856688176 2.13092643628256
151 1 2 -2.2322542177148827 2.5761586967122616 2.13092643628256
152 1 2 -2.8676200136727874 1.8429074801344172 2.13092643628256
153 1 2 -3.270668290515814 0.9603548597088816 2.13092643628256
154 1 2 -3.408746473874539 1.9312385739956594e-15 2.13092643628256
155 1 2 -3.270668290515814 -0.9603548597088806 2.13092643628256
156 1 2 -2.867620013672788 -1.8429074801344165 2.13092643628256
157 1 2 -2.2322542177148836 -2.576158696712261 2.13092643628256
158 1 2 -1.4160444607647287 -3.100704856688174 2.13092643628256
159 1 2 -0.4851152031440863 -3.374050349777041 2.13092643628256
160 1 2 0.48511520314408507 -3.3740503497770415 2.13092643628256
161 1 2 1.416044460764725 -3.1007048566881763 2.13092643628256
162 1 2 2.2322542177148814 -2.576158696712263 2.13092643628256
163 1 2 2.867620013672788 -1.842907480134416 2.13092643628256
164 1 2 3.270668290515814 -0.9603548597088819 2.13092643628256
165 1 2 3.8130124848949447 0.0 1.2733168458931479
166 1 2 3.6932196860424824 0.9482576446267064 1.2733168458931479
167 1 2 3.3413683116040915 1.836932773993851 1.2733168458931479
168 1 2 2.7795664774545736 2.610186661404792 1.2733168458931479
169 1 2 2.0431142589961575 3.2194329212846324 1.2733168458931479
170 1 2 1.1782856575963856 3.626390370474113 1.2733168458931479
171 1 2 0.23942103489831232 3.8054883757558557 1.2733168458931479
172 1 2 -0.7144872919513952 3.745473550781621 1.2733168458931479
173 1 2 -1.6235017545473471 3.4501168477236255 1.2733168458931479
174 1 2 -2.4305056310833013 2.937976614480974 1.2733168458931479
175 1 2 -3.0847919000438573 2.2412325054283255 1.2733168458931479
176 1 2 -3.545249348853651 1.4036635153830446 1.2733168458931479
177 1 2 -3.7829457425599227 0.4778971843529473 1.2733168458931479
178 1 2 -3.782945742559923 -0.47789718435294637 1.2733168458931479
179 1 2 -3.5452493488536514 -1.4036635153830437 1.2733168458931479
180 1 2 -3.084791900043859 -2.2412325054283233 1.2733168458931479
181 1 2 -2.4305056310833004 -2.9379766144809745 1.2733168458931479
182 1 2 -1.623501754547345 -3.450116847723627 1.2733168458931479
183 1 2 -0.7144872919513953 -3.745473550781621 1.2733168458931479
184 1 2 0.23942103489830968 -3.8054883757558557 1.2733168458931479
185 1 2 1.1782856575963847 -3.6263903704741134 1.2733168458931479
186 1 2 2.0431142589961584 -3.219432921284632 1.2733168458931479
187 1 2 2.7795664774545723 -2.6101866614047933 1.2733168458931479
188 1 2 3.3413683116040898 -1.836932773993854 1.2733168458931479
189 1 2 3.693219686042482 -0.9482576446267085 1.2733168458931479
190 1 2 4.00517897633981 0.0 0.344878772158547
191 1 2 3.8887957544039895 0.9585020673133221 0.344878772158547
192 1 2 3.5464098584196395 1.86129947848765 0.344878772158547
193 1 2 2.997919512139276 2.6559249295206016 0.344878772158547
194 1 2 2.2752009808074245 3.296197677544134 0.344878772158547
195 1 2 1.4202560384901164 3.744907397739865 0.344878772158547
196 1 2 0.4827709776364136 3.975976712163489 0.344878772158547
197 1 2 -0.4827709776364131 3.975976712163489 0.344878772158547
198 1 2 -1.420256038490116 3.744907397739865 0.344878772158547
199 1 2 -2.2752009808074236 3.2961976775441344 0.344878772158547
200 1 2 -2.9979195121392763 2.6559249295206016 0.344878772158547
201 1 2 -3.546409858419638 1.8612994784876522 0.344878772158547
202 1 2 -3.8887957544039895 0.9585020673133219 0.344878772158547
203 1 2 -4.00517897633981 -1.2881638055721467e-15 0.344878772158547
204 1 2 -3.88879575440399 -0.9585020673133209 0.344878772158547
205 1 2 -3.5464098584196404 -1.8612994784876482 0.344878772158547
206 1 2 -2.9979195121392768 -2.6559249295206007 0.344878772158547
207 1 2 -2.2752009808074245 -3.296197677544134 0.344878772158547
208 1 2 -1.4202560384901177 -3.7449073977398646 0.344878772158547
209 1 2 -0.48277097763641585 -3.975976712163489 0.344878772158547
210 1 2 0.48277097763641436 -3.975976712163489 0.344878772158547
211 1 2 1.4202560384901164 -3.744907397739865 0.344878772158547
212 1 2 2.27520098080742 -3.2961976775441366 0.344878772158547
213 1 2 2.9979195121392745 -2.655924929520603 0.344878772158547
214 1 2 3.54640985841964 -1.8612994784876495 0.344878772158547
215 1 2 3.8887957544039895 -0.9585020673133223 0.344878772158547
216 1 2 3.974556651839025 0.0 -0.6027432466002058
217 1 2 3.859063258999387 0.9511736653833877 -0.6027432466002058
218 1 2 3.519295136670912 1.8470685747102917 -0.6027432466002058
219 1 2 2.9749983731164553 2.635618572296129 -0.6027432466002058
220 1 2 2.2578055177955667 3.270995998543828 -0.6027432466002058
221 1 2 1.409397212569536 3.716275026942848 -0.6027432466002058
222 1 2 0.47907986429938776 3.94557765888605 -0.6027432466002058
223 1 2 -0.47907986429938726 3.94557765888605 -0.6027432466002058
224 1 2 -1.4093972125695355 3.716275026942848 -0.6027432466002058
225 1 2 -2.257805517795566 3.2709959985438286 -0.6027432466002058
226 1 2 -2.9749983731164558 2.635618572296129 -0.6027432466002058
227 1 2 -3.5192951366709107 1.847068574710294 -0.6027432466002058
228 1 2 -3.859063258999387 0.9511736653833874 -0.6027432466002058
229 1 2 -3.974556651839025 -1.2783149148490548e-15 -0.6027432466002058
230 1 2 -3.8590632589993876 -0.9511736653833864 -0.6027432466002058
231 1 2 -3.519295136670913 -1.84706857471029 -0.6027432466002058
232 1 2 -2.974998373116456 -2.6356185722961283 -0.6027432466002058
233 1 2 -2.2578055177955667 -3.270995998543828 -0.6027432466002058
234 1 2 -1.4093972125695373 -3.7162750269428475 -0.6027432466002058
235 1 2 -0.47907986429939 -3.94557765888605 -0.6027432466002058
236 1 2 0.47907986429938854 -3.94557765888605 -0.6027432466002058
237 1 2 1.409397212569536 -3.716275026942848 -0.6027432466002058
238 1 2 2.2578055177955627 -3.270995998543831 -0.6027432466002058
239 1 2 2.974998373116454 -2.6356185722961305 -0.6027432466002058
240 1 2 3.5192951366709124 -1.8470685747102913 -0.6027432466002058
241 1 2 3.859063258999387 -0.9511736653833879 -0.6027432466002058
242 1 2 3.7228488838154785 0.0 -1.5168375615977616
243 1 2 3.5959958842488016 0.9635441931701073 -1.5168375615977616
244 1 2 3.224081707834747 1.861424441907739 -1.5168375615977616
245 1 2 2.6324516910786944 2.6324516910786944 -1.5168375615977616
246 1 2 1.8614244419077397 3.2240817078347463 -1.5168375615977616
247 1 2 0.9635441931701073 3.5959958842488016 -1.5168375615977616
248 1 2 2.2795874846369614e-16 3.7228488838154785 -1.5168375615977616
249 1 2 -0.9635441931701069 3.5959958842488016 -1.5168375615977616
250 1 2 -1.8614244419077384 3.224081707834747 -1.5168375615977616
251 1 2 -2.632451691078694 2.6324516910786944 -1.5168375615977616
252 1 2 -3.224081707834747 1.861424441907739 -1.5168375615977616
253 1 2 -3.5959958842488016 0.9635441931701083 -1.5168375615977616
254 1 2 -3.7228488838154785 4.559174969273923e-16 -1.5168375615977616
255 1 2 -3.5959958842488016 -0.9635441931701075 -1.5168375615977616
256 1 2 -3.2240817078347472 -1.8614244419077381 -1.5168375615977616
257 1 2 -2.6324516910786957 -2.6324516910786926 -1.5168375615977616
258 1 2 -1.8614244419077408 -3.224081707834746 -1.5168375615977616
259 1 2 -0.9635441931701069 -3.5959958842488016 -1.5168375615977616
260 1 2 -6.838762453910883e-16 -3.7228488838154785 -1.5168375615977616
261 1 2 0.9635441931701056 -3.595995884248802 -1.5168375615977616
262 1 2 1.8614244419077397 -3.2240817078347463 -1.5168375615977616
263 1 2 2.6324516910786935 -2.632451691078695 -1.5168375615977616
264 1 2 3.2240817078347455 -1.8614244419077408 -1.5168375615977616
265 1 2 3.595995884248801 -0.9635441931701104 -1.5168375615977616
266 1 2 3.2640569630802707 0.0 -2.3465575087278805
267 1 2 3.1318397215529945 0.9195911138846766 -2.3465575087278805
268 1 2 2.7458994515534942 1.7646824247413528 -2.3465575087278805
269 1 2 2.1375027384819645 2.4668096605159673 -2.3465575087278805
270 1 2 1.3559382657568886 2.969090648277516 -2.3465575087278805
271 1 2 0.4645237388155589 3.230833569577612 -2.3465575087278805
272 1 2 -0.46452373881555853 3.2308335695776123 -2.3465575087278805
273 1 2 -1.3559382657568881 2.9690906482775166 -2.3465575087278805
274 1 2 -2.137502738481964 2.4668096605159673 -2.3465575087278805
275 1 2 -2.745899451553494 1.7646824247413535 -2.3465575087278805
276 1 2 -3.1318397215529945 0.9195911138846766 -2.3465575087278805
277 1 2 -3.2640569630802707 1.849264168847001e-15 -2.3465575087278805
278 1 2 -3.131839721552995 -0.9195911138846757 -2.3465575087278805
279 1 2 -2.7458994515534942 -1.7646824247413528 -2.3465575087278805
280 1 2 -2.137502738481965 -2.4668096605159673 -2.3465575087278805
281 1 2 -1.355938265756891 -2.969090648277515 -2.3465575087278805
282 1 2 -0.46452373881555925 -3.230833569577612 -2.3465575087278805
283 1 2 0.4645237388155581 -3.2308335695776123 -2.3465575087278805
284 1 2 1.3559382657568873 -2.9690906482775166 -2.3465575087278805
285 1 2 2.1375027384819627 -2.466809660515969 -2.3465575087278805
286 1 2 2.7458994515534942 -1.7646824247413524 -2.3465575087278805
287 1 2 3.1318397215529945 -0.9195911138846771 -2.3465575087278805
288 1 2 2.623701274462672 0.0 -3.0457497635857984
289 1 2 2.4465285766892575 0.9477902199642523 -3.0457497635857984
290 1 2 1.9389386379511226 1.7675761188354224 -3.0457497635857984
291 1 2 1.1694842921277995 2.3486410683804775 -3.0457497635857984
292 1 2 0.24208461231644546 2.612509027371321 -3.0457497635857984
293 1 2 -0.7180099358253895 2.523543165803405 -3.0457497635857984
294 1 2 -1.5811332635036037 2.0937588162583327 -3.0457497635857984
295 1 2 -2.230715782583791 1.38120073665946 -3.0457497635857984
296 1 2 -2.5790277744031767 0.48210384407723716 -3.0457497635857984
297 1 2 -2.5790277744031767 -0.4821038440772365 -3.0457497635857984
298 1 2 -2.230715782583791 -1.3812007366594596 -3.0457497635857984
299 1 2 -1.5811332635036062 -2.093758816258331 -3.0457497635857984
300 1 2 -0.7180099358253901 -2.523543165803405 -3.0457497635857984
301 1 2 0.24208461231644654 -2.612509027371321 -3.0457497635857984
302 1 2 1.169484292127798 -2.348641068380478 -3.0457497635857984
303 1 2 1.9389386379511215 -1.7675761188354238 -3.0457497635857984
304 1 2 2.4465285766892575 -0.9477902199642526 -3.0457497635857984
305 1 2 1.837401720717378 0.0 -3.5755216286165594
306 1 2 1.6269384251547787 0.8538831559704584 -3.5755216286165594
307 1 2 1.0437631431227075 1.5121519713156442 -3.5755216286165594
308 1 2 0.2214743037106909 1.8240049934391753 -3.5755216286165594
309 1 2 -0.6515516296267462 1.7180004532088788 -3.5755216286165594
310 1 2 -1.3753149366650335 1.218422713298319 -3.5755216286165594
311 1 2 -1.7840101660550862 0.43971901335658087 -3.5755216286165594
312 1 2 -1.7840101660550864 -0.4397190133565804 -3.5755216286165594
313 1 2 -1.3753149366650337 -1.2184227132983185 -3.5755216286165594
314 1 2 -0.651551629626747 -1.7180004532088786 -3.5755216286165594
315 1 2 0.22147430371069127 -1.8240049934391753 -3.5755216286165594
316 1 2 1.0437631431227055 -1.5121519713156453 -3.5755216286165594
317 1 2 1.626938425154779 -0.8538831559704582 -3.5755216286165594
318 1 2 0.9488963588933085 0.0 -3.9064044465568357
319 1 2 0.5916272027908627 0.741877046982071 -3.9064044465568357
320 1 2 -0.21114930400868503 0.9251055460527876 -3.9064044465568357
321 1 2 -0.8549260782288316 0.41171070023166517 -3.9064044465568357
322 1 2 -0.8549260782288317 -0.41171070023166495 -3.9064044465568357
323 1 2 -0.21114930400868528 -0.9251055460527876 -3.9064044465568357
324 1 2 0.5916272027908624 -0.7418770469820711 -3.9064044465568357
325 1 2 0 0 -4.02

Bonds

1 1 1 2
2 1 2 3
3 1 3 4
4 1 4 5
5 1 5 6
6 1 6 7
7 1 7 8
8 1 8 9
9 1 9 10
10 1 10 11
11 1 11 12
12 1 12 13
13 1 13 14
14 1 14 15
15 1 15 16
16 1 16 17
17 1 17 18
18 1 18 19
19 1 19 20
20 1 20 21
21 1 21 22
22 1 22 23
23 1 23 24
24 1 24 25
25 1 25 26
26 1 26 27
27 1 27 28
28 1 28 29
29 1 29 30
30 1 30 31
31 1 31 32
32 1 32 33
33 1 33 34
34 1 34 35
35 1 35 36
36 1 36 37
37 1 37 38
38 1 38 39
39 1 39 40
40 1 40 41
41 1 41 42
42 1 42 43
43 1 43 44
44 1 44 45
45 1 45 46
46 1 46 47
47 1 47 48
48 1 48 49
49 1 49 50
50 1 50 51
51 1 51 52
52 1 52 53
53 1 53 54
54 1 54 55
55 1 55 56
56 1 56 57
57 1 57 58
58 1 58 59
59 1 59 60
60 1 60 61
61 1 61 62
62 1 62 63
63 1 63 64
64 1 64 65
65 1 65 66
66 1 66 67
67 1 67 68
68 1 68 69
69 1 69 70
70 1 70 71
71 1 71 72
72 1 72 73
73 1 73 74
74 1 74 75
75 1 75 76
76 1 76 77
77 1 77 78
78 1 78 79
79 1 79 80
80 1 80 81
81 1 81 82
82 1 82 83
83 1 83 84
84 1 84 85
85 1 85 86
86 1 86 87
87 1 87 88
88 1 88 89
89 1 89 90
90 1 90 91
91 1 91 92
92 1 92 93
93 1 93 94
94 1 94 95
95 1 95 96
96 1 96 97
97 1 97 98
98 1 98 99
99 1 99 100
